*SENSE:Minimize
NAME          MODEL
ROWS
 N  OBJ
 G  C0000000
 L  C0000001
 G  C0000002
 L  C0000003
 G  C0000004
 L  C0000005
 G  C0000006
 L  C0000007
 G  C0000008
 L  C0000009
 G  C0000010
 L  C0000011
 G  C0000012
 L  C0000013
 G  C0000014
 L  C0000015
 G  C0000016
 L  C0000017
 G  C0000018
 L  C0000019
 G  C0000020
 L  C0000021
 G  C0000022
 L  C0000023
 G  C0000024
 L  C0000025
 G  C0000026
 L  C0000027
 G  C0000028
 L  C0000029
 G  C0000030
 L  C0000031
 G  C0000032
 L  C0000033
 G  C0000034
 L  C0000035
 G  C0000036
 L  C0000037
 G  C0000038
 L  C0000039
 G  C0000040
 L  C0000041
 G  C0000042
 L  C0000043
 G  C0000044
 L  C0000045
 G  C0000046
 L  C0000047
 G  C0000048
 L  C0000049
 G  C0000050
 L  C0000051
 G  C0000052
 L  C0000053
 G  C0000054
 L  C0000055
 G  C0000056
 L  C0000057
 G  C0000058
 L  C0000059
 G  C0000060
 L  C0000061
 G  C0000062
 L  C0000063
 G  C0000064
 L  C0000065
 G  C0000066
 L  C0000067
 G  C0000068
 L  C0000069
 G  C0000070
 L  C0000071
 G  C0000072
 L  C0000073
 G  C0000074
 L  C0000075
 G  C0000076
 L  C0000077
 G  C0000078
 L  C0000079
 G  C0000080
 L  C0000081
 G  C0000082
 L  C0000083
 G  C0000084
 L  C0000085
 G  C0000086
 L  C0000087
 G  C0000088
 L  C0000089
 G  C0000090
 L  C0000091
 G  C0000092
 L  C0000093
 G  C0000094
 L  C0000095
 G  C0000096
 L  C0000097
 G  C0000098
 L  C0000099
 G  C0000100
 L  C0000101
 G  C0000102
 L  C0000103
 G  C0000104
 L  C0000105
 G  C0000106
 L  C0000107
 G  C0000108
 L  C0000109
 G  C0000110
 L  C0000111
 G  C0000112
 L  C0000113
 G  C0000114
 L  C0000115
 G  C0000116
 L  C0000117
 G  C0000118
 L  C0000119
 G  C0000120
 L  C0000121
 G  C0000122
 L  C0000123
 G  C0000124
 L  C0000125
 G  C0000126
 L  C0000127
 G  C0000128
 L  C0000129
 G  C0000130
 L  C0000131
 G  C0000132
 L  C0000133
 G  C0000134
 L  C0000135
 G  C0000136
 G  C0000137
 G  C0000138
 G  C0000139
 G  C0000140
 G  C0000141
 G  C0000142
 G  C0000143
 G  C0000144
 G  C0000145
 G  C0000146
 G  C0000147
 G  C0000148
 G  C0000149
 G  C0000150
 G  C0000151
 G  C0000152
 G  C0000153
 G  C0000154
 G  C0000155
 G  C0000156
 G  C0000157
 G  C0000158
 G  C0000159
 G  C0000160
 G  C0000161
 G  C0000162
 G  C0000163
 G  C0000164
 G  C0000165
 G  C0000166
 G  C0000167
 G  C0000168
 G  C0000169
 G  C0000170
 G  C0000171
 G  C0000172
 G  C0000173
 G  C0000174
 G  C0000175
 G  C0000176
 G  C0000177
 G  C0000178
 G  C0000179
 G  C0000180
 G  C0000181
 G  C0000182
 G  C0000183
 G  C0000184
 G  C0000185
 G  C0000186
 G  C0000187
 G  C0000188
 G  C0000189
 G  C0000190
 G  C0000191
COLUMNS
    X0000000  C0000136   1.000000000000e+00
    X0000000  C0000137   1.000000000000e+00
    X0000000  C0000138   1.000000000000e+00
    X0000000  C0000139   1.000000000000e+00
    X0000000  C0000140   1.000000000000e+00
    X0000000  C0000141   1.000000000000e+00
    X0000000  C0000142   1.000000000000e+00
    X0000000  C0000143   1.000000000000e+00
    X0000000  C0000144   1.000000000000e+00
    X0000000  C0000145   1.000000000000e+00
    X0000000  C0000146   1.000000000000e+00
    X0000000  C0000147   1.000000000000e+00
    X0000000  C0000148   1.000000000000e+00
    X0000000  C0000149   1.000000000000e+00
    X0000000  C0000150   1.000000000000e+00
    X0000000  C0000151   1.000000000000e+00
    X0000000  C0000152   1.000000000000e+00
    X0000000  C0000153   1.000000000000e+00
    X0000000  C0000154   1.000000000000e+00
    X0000000  C0000155   1.000000000000e+00
    X0000000  C0000156   1.000000000000e+00
    X0000000  C0000157   1.000000000000e+00
    X0000000  C0000158   1.000000000000e+00
    X0000000  C0000159   1.000000000000e+00
    X0000000  C0000160   1.000000000000e+00
    X0000000  C0000161   1.000000000000e+00
    X0000000  C0000162   1.000000000000e+00
    X0000000  C0000163   1.000000000000e+00
    X0000000  C0000164   1.000000000000e+00
    X0000000  C0000165   1.000000000000e+00
    X0000000  C0000166   1.000000000000e+00
    X0000000  C0000167   1.000000000000e+00
    X0000000  C0000168   1.000000000000e+00
    X0000000  C0000169   1.000000000000e+00
    X0000000  C0000170   1.000000000000e+00
    X0000000  C0000171   1.000000000000e+00
    X0000000  C0000172   1.000000000000e+00
    X0000000  C0000173   1.000000000000e+00
    X0000000  C0000174   1.000000000000e+00
    X0000000  C0000175   1.000000000000e+00
    X0000000  C0000176   1.000000000000e+00
    X0000000  C0000177   1.000000000000e+00
    X0000000  C0000178   1.000000000000e+00
    X0000000  C0000179   1.000000000000e+00
    X0000000  C0000180   1.000000000000e+00
    X0000000  C0000181   1.000000000000e+00
    X0000000  C0000182   1.000000000000e+00
    X0000000  C0000183   1.000000000000e+00
    X0000000  C0000184   1.000000000000e+00
    X0000000  C0000185   1.000000000000e+00
    X0000000  C0000186   1.000000000000e+00
    X0000000  C0000187   1.000000000000e+00
    X0000000  C0000188   1.000000000000e+00
    X0000000  C0000189   1.000000000000e+00
    X0000000  C0000190   1.000000000000e+00
    X0000000  C0000191   1.000000000000e+00
    X0000000  OBJ        1.000000000000e+00
    MARK      'MARKER'                 'INTORG'
    X0000001  C0000000  -9.000000000000e+00
    X0000001  C0000001   9.000000000000e+00
    X0000001  C0000002   1.000000000000e+01
    X0000001  C0000003  -1.000000000000e+01
    X0000001  C0000136   5.000000000000e+02
    X0000001  C0000137   1.750000000000e+04
    X0000001  C0000138   1.750000000000e+04
    X0000001  C0000139   5.000000000000e+02
    X0000001  C0000140   3.900000000000e+03
    X0000001  C0000141   3.900000000000e+03
    X0000001  C0000142   1.000000000000e+02
    X0000001  C0000149   1.000000000000e+02
    X0000001  C0000150   1.000000000000e+02
    X0000001  C0000151   1.000000000000e+02
    X0000001  C0000152   1.000000000000e+02
    X0000001  C0000153   1.000000000000e+02
    X0000001  C0000154   1.000000000000e+02
    X0000001  C0000155   3.900000000000e+03
    X0000001  C0000156   3.500000000000e+02
    X0000001  C0000157   1.000000000000e+02
    X0000001  C0000158   1.000000000000e+02
    X0000001  C0000159   3.750000000000e+03
    X0000001  C0000160   3.900000000000e+03
    X0000001  C0000161   1.240000000000e+04
    X0000001  C0000162   1.000000000000e+02
    X0000001  C0000164   1.000000000000e+02
    X0000001  C0000165   3.500000000000e+03
    X0000001  C0000166   1.000000000000e+02
    X0000001  C0000167   1.000000000000e+02
    X0000001  C0000168   3.750000000000e+03
    X0000001  C0000169   1.240000000000e+04
    X0000001  C0000170   1.750000000000e+04
    X0000001  C0000171   1.750000000000e+04
    X0000001  C0000172   1.750000000000e+04
    X0000001  C0000173   1.750000000000e+04
    X0000001  C0000174   1.750000000000e+04
    X0000001  C0000175   1.750000000000e+04
    X0000001  C0000176   1.750000000000e+04
    X0000001  C0000177   1.000000000000e+02
    X0000001  C0000178   1.000000000000e+02
    X0000001  C0000179   3.750000000000e+03
    X0000001  C0000180   1.240000000000e+04
    X0000001  C0000181   1.240000000000e+04
    X0000001  C0000182   1.000000000000e+02
    X0000001  C0000190   2.500000000000e+02
    X0000001  OBJ        3.000000000000e+02
    MARK      'MARKER'                 'INTEND'
    MARK      'MARKER'                 'INTORG'
    X0000002  C0000000   1.000000000000e+00
    X0000002  C0000001  -1.000000000000e+00
    X0000002  C0000002  -9.000000000000e+00
    X0000002  C0000003   9.000000000000e+00
    X0000002  C0000004   1.000000000000e+01
    X0000002  C0000005  -1.000000000000e+01
    X0000002  C0000136   1.300000000000e+03
    X0000002  C0000137   1.750000000000e+04
    X0000002  C0000138   1.000000000000e+03
    X0000002  C0000139   4.000000000000e+02
    X0000002  C0000140   9.000000000000e+02
    X0000002  C0000141   1.400000000000e+04
    X0000002  C0000142   4.000000000000e+02
    X0000002  C0000143   2.500000000000e+02
    X0000002  C0000144   2.500000000000e+02
    X0000002  C0000149   4.000000000000e+02
    X0000002  C0000150   2.500000000000e+02
    X0000002  C0000151   2.500000000000e+02
    X0000002  C0000152   4.000000000000e+02
    X0000002  C0000153   2.500000000000e+02
    X0000002  C0000154   4.000000000000e+02
    X0000002  C0000155   4.000000000000e+02
    X0000002  C0000156   2.500000000000e+02
    X0000002  C0000161   7.500000000000e+02
    X0000002  C0000169   1.410000000000e+04
    X0000002  C0000170   4.000000000000e+02
    X0000002  C0000171   4.000000000000e+02
    X0000002  C0000172   4.000000000000e+02
    X0000002  C0000173   1.400000000000e+04
    X0000002  C0000174   1.400000000000e+04
    X0000002  C0000175   4.000000000000e+02
    X0000002  C0000176   2.500000000000e+02
    X0000002  C0000177   2.500000000000e+02
    X0000002  C0000178   4.000000000000e+02
    X0000002  C0000179   1.400000000000e+04
    X0000002  C0000180   4.000000000000e+02
    X0000002  C0000181   2.500000000000e+02
    X0000002  OBJ        3.000000000000e+02
    MARK      'MARKER'                 'INTEND'
    MARK      'MARKER'                 'INTORG'
    X0000003  C0000002   1.000000000000e+00
    X0000003  C0000003  -1.000000000000e+00
    X0000003  C0000004   1.000000000000e+00
    X0000003  C0000005  -1.000000000000e+00
    X0000003  C0000006   1.000000000000e+00
    X0000003  C0000007  -1.000000000000e+00
    X0000003  C0000008   1.000000000000e+00
    X0000003  C0000009  -1.000000000000e+00
    X0000003  C0000010   1.000000000000e+00
    X0000003  C0000011  -1.000000000000e+00
    X0000003  C0000012   1.000000000000e+00
    X0000003  C0000013  -1.000000000000e+00
    X0000003  C0000014   1.000000000000e+00
    X0000003  C0000015  -1.000000000000e+00
    X0000003  C0000016   1.000000000000e+00
    X0000003  C0000017  -1.000000000000e+00
    X0000003  C0000018   1.000000000000e+00
    X0000003  C0000019  -1.000000000000e+00
    X0000003  C0000020  -9.000000000000e+00
    X0000003  C0000021   9.000000000000e+00
    X0000003  C0000022   1.000000000000e+01
    X0000003  C0000023  -1.000000000000e+01
    X0000003  C0000136   1.750000000000e+04
    X0000003  C0000137   1.750000000000e+04
    X0000003  C0000138   3.500000000000e+03
    X0000003  C0000139   1.500000000000e+03
    X0000003  C0000140   1.500000000000e+03
    X0000003  C0000141   1.500000000000e+03
    X0000003  C0000142   2.100000000000e+03
    X0000003  C0000143   2.100000000000e+03
    X0000003  C0000144   1.500000000000e+03
    X0000003  C0000145   1.500000000000e+03
    X0000003  C0000146   1.500000000000e+03
    X0000003  C0000147   1.500000000000e+03
    X0000003  C0000148   1.500000000000e+03
    X0000003  C0000149   1.500000000000e+03
    X0000003  C0000150   1.500000000000e+03
    X0000003  C0000151   1.500000000000e+03
    X0000003  C0000152   1.500000000000e+03
    X0000003  C0000153   1.500000000000e+03
    X0000003  C0000154   1.500000000000e+03
    X0000003  C0000181   3.500000000000e+03
    X0000003  C0000182   3.100000000000e+03
    X0000003  C0000183   1.500000000000e+03
    X0000003  C0000184   1.500000000000e+03
    X0000003  C0000185   1.500000000000e+03
    X0000003  C0000186   1.500000000000e+03
    X0000003  C0000187   1.500000000000e+03
    X0000003  C0000188   1.500000000000e+03
    X0000003  C0000189   2.100000000000e+03
    X0000003  C0000190   2.100000000000e+03
    X0000003  C0000191   1.500000000000e+03
    X0000003  OBJ        3.000000000000e+02
    MARK      'MARKER'                 'INTEND'
    MARK      'MARKER'                 'INTORG'
    X0000004  C0000004   1.000000000000e+00
    X0000004  C0000005  -1.000000000000e+00
    X0000004  C0000006   1.000000000000e+00
    X0000004  C0000007  -1.000000000000e+00
    X0000004  C0000008   1.000000000000e+00
    X0000004  C0000009  -1.000000000000e+00
    X0000004  C0000010   1.000000000000e+00
    X0000004  C0000011  -1.000000000000e+00
    X0000004  C0000012   1.000000000000e+00
    X0000004  C0000013  -1.000000000000e+00
    X0000004  C0000014   1.000000000000e+00
    X0000004  C0000015  -1.000000000000e+00
    X0000004  C0000016   1.000000000000e+00
    X0000004  C0000017  -1.000000000000e+00
    X0000004  C0000018   1.000000000000e+00
    X0000004  C0000019  -1.000000000000e+00
    X0000004  C0000020   1.000000000000e+00
    X0000004  C0000021  -1.000000000000e+00
    X0000004  C0000022  -9.000000000000e+00
    X0000004  C0000023   9.000000000000e+00
    X0000004  C0000024   1.000000000000e+01
    X0000004  C0000025  -1.000000000000e+01
    X0000004  C0000136   1.750000000000e+04
    X0000004  C0000137   1.750000000000e+04
    X0000004  C0000138   3.500000000000e+03
    X0000004  C0000139   2.900000000000e+03
    X0000004  C0000140   2.900000000000e+03
    X0000004  C0000141   9.900000000000e+03
    X0000004  C0000142   2.500000000000e+03
    X0000004  C0000143   2.500000000000e+03
    X0000004  C0000144   1.500000000000e+03
    X0000004  C0000145   1.500000000000e+03
    X0000004  C0000146   1.500000000000e+03
    X0000004  C0000147   1.500000000000e+03
    X0000004  C0000148   2.500000000000e+03
    X0000004  C0000149   2.500000000000e+03
    X0000004  C0000150   1.500000000000e+03
    X0000004  C0000151   1.500000000000e+03
    X0000004  C0000152   1.500000000000e+03
    X0000004  C0000153   1.500000000000e+03
    X0000004  C0000154   1.500000000000e+03
    X0000004  OBJ        3.000000000000e+02
    MARK      'MARKER'                 'INTEND'
    MARK      'MARKER'                 'INTORG'
    X0000005  C0000006   1.000000000000e+00
    X0000005  C0000007  -1.000000000000e+00
    X0000005  C0000008   1.000000000000e+00
    X0000005  C0000009  -1.000000000000e+00
    X0000005  C0000010   1.000000000000e+00
    X0000005  C0000011  -1.000000000000e+00
    X0000005  C0000012   1.000000000000e+00
    X0000005  C0000013  -1.000000000000e+00
    X0000005  C0000014   1.000000000000e+00
    X0000005  C0000015  -1.000000000000e+00
    X0000005  C0000016   1.000000000000e+00
    X0000005  C0000017  -1.000000000000e+00
    X0000005  C0000018   1.000000000000e+00
    X0000005  C0000019  -1.000000000000e+00
    X0000005  C0000020   1.000000000000e+00
    X0000005  C0000021  -1.000000000000e+00
    X0000005  C0000022   1.000000000000e+00
    X0000005  C0000023  -1.000000000000e+00
    X0000005  C0000024  -9.000000000000e+00
    X0000005  C0000025   9.000000000000e+00
    X0000005  C0000026   1.000000000000e+01
    X0000005  C0000027  -1.000000000000e+01
    X0000005  C0000136   1.750000000000e+04
    X0000005  C0000137   1.750000000000e+04
    X0000005  C0000138   3.500000000000e+03
    X0000005  C0000139   1.900000000000e+03
    X0000005  C0000140   1.900000000000e+03
    X0000005  C0000141   5.300000000000e+03
    X0000005  C0000142   1.900000000000e+03
    X0000005  C0000143   1.900000000000e+03
    X0000005  C0000144   1.900000000000e+03
    X0000005  C0000145   1.500000000000e+03
    X0000005  C0000146   1.500000000000e+03
    X0000005  C0000147   1.500000000000e+03
    X0000005  C0000148   1.500000000000e+03
    X0000005  C0000149   1.500000000000e+03
    X0000005  C0000150   1.500000000000e+03
    X0000005  C0000151   1.500000000000e+03
    X0000005  C0000152   1.500000000000e+03
    X0000005  C0000153   1.500000000000e+03
    X0000005  C0000154   1.500000000000e+03
    X0000005  C0000183   1.750000000000e+04
    X0000005  C0000184   3.500000000000e+03
    X0000005  C0000185   1.900000000000e+03
    X0000005  C0000186   1.900000000000e+03
    X0000005  C0000187   1.900000000000e+03
    X0000005  C0000188   1.900000000000e+03
    X0000005  C0000189   1.500000000000e+03
    X0000005  C0000190   1.500000000000e+03
    X0000005  C0000191   1.500000000000e+03
    X0000005  OBJ        3.000000000000e+02
    MARK      'MARKER'                 'INTEND'
    MARK      'MARKER'                 'INTORG'
    X0000006  C0000008   1.000000000000e+00
    X0000006  C0000009  -1.000000000000e+00
    X0000006  C0000010   1.000000000000e+00
    X0000006  C0000011  -1.000000000000e+00
    X0000006  C0000012   1.000000000000e+00
    X0000006  C0000013  -1.000000000000e+00
    X0000006  C0000014   1.000000000000e+00
    X0000006  C0000015  -1.000000000000e+00
    X0000006  C0000016   1.000000000000e+00
    X0000006  C0000017  -1.000000000000e+00
    X0000006  C0000018   1.000000000000e+00
    X0000006  C0000019  -1.000000000000e+00
    X0000006  C0000020   1.000000000000e+00
    X0000006  C0000021  -1.000000000000e+00
    X0000006  C0000022   1.000000000000e+00
    X0000006  C0000023  -1.000000000000e+00
    X0000006  C0000024   1.000000000000e+00
    X0000006  C0000025  -1.000000000000e+00
    X0000006  C0000026  -9.000000000000e+00
    X0000006  C0000027   9.000000000000e+00
    X0000006  C0000028   1.000000000000e+01
    X0000006  C0000029  -1.000000000000e+01
    X0000006  C0000136   1.750000000000e+04
    X0000006  C0000137   1.750000000000e+04
    X0000006  C0000138   1.050000000000e+04
    X0000006  C0000139   3.100000000000e+03
    X0000006  C0000140   1.050000000000e+04
    X0000006  C0000141   1.470000000000e+04
    X0000006  C0000142   3.100000000000e+03
    X0000006  C0000143   3.100000000000e+03
    X0000006  C0000144   3.100000000000e+03
    X0000006  C0000145   2.500000000000e+03
    X0000006  C0000146   2.500000000000e+03
    X0000006  C0000147   2.500000000000e+03
    X0000006  C0000148   2.500000000000e+03
    X0000006  C0000149   2.500000000000e+03
    X0000006  C0000150   2.500000000000e+03
    X0000006  C0000151   2.500000000000e+03
    X0000006  C0000152   2.500000000000e+03
    X0000006  C0000153   2.500000000000e+03
    X0000006  C0000154   2.500000000000e+03
    X0000006  OBJ        3.000000000000e+02
    MARK      'MARKER'                 'INTEND'
    MARK      'MARKER'                 'INTORG'
    X0000007  C0000010   1.000000000000e+00
    X0000007  C0000011  -1.000000000000e+00
    X0000007  C0000012   1.000000000000e+00
    X0000007  C0000013  -1.000000000000e+00
    X0000007  C0000014   1.000000000000e+00
    X0000007  C0000015  -1.000000000000e+00
    X0000007  C0000016   1.000000000000e+00
    X0000007  C0000017  -1.000000000000e+00
    X0000007  C0000018   1.000000000000e+00
    X0000007  C0000019  -1.000000000000e+00
    X0000007  C0000020   1.000000000000e+00
    X0000007  C0000021  -1.000000000000e+00
    X0000007  C0000022   1.000000000000e+00
    X0000007  C0000023  -1.000000000000e+00
    X0000007  C0000024   1.000000000000e+00
    X0000007  C0000025  -1.000000000000e+00
    X0000007  C0000026   1.000000000000e+00
    X0000007  C0000027  -1.000000000000e+00
    X0000007  C0000028  -9.000000000000e+00
    X0000007  C0000029   9.000000000000e+00
    X0000007  C0000136   1.750000000000e+04
    X0000007  C0000137   1.050000000000e+04
    X0000007  C0000138   2.500000000000e+03
    X0000007  C0000139   1.900000000000e+03
    X0000007  C0000140   1.900000000000e+03
    X0000007  C0000141   4.700000000000e+03
    X0000007  C0000142   1.900000000000e+03
    X0000007  C0000143   1.900000000000e+03
    X0000007  C0000144   1.500000000000e+03
    X0000007  C0000145   1.900000000000e+03
    X0000007  C0000146   1.900000000000e+03
    X0000007  C0000147   1.500000000000e+03
    X0000007  C0000148   1.500000000000e+03
    X0000007  C0000149   1.900000000000e+03
    X0000007  C0000150   4.700000000000e+03
    X0000007  C0000151   4.700000000000e+03
    X0000007  C0000152   4.700000000000e+03
    X0000007  C0000153   4.700000000000e+03
    X0000007  C0000154   4.700000000000e+03
    X0000007  OBJ        3.000000000000e+02
    MARK      'MARKER'                 'INTEND'
    MARK      'MARKER'                 'INTORG'
    X0000008  C0000012   1.000000000000e+00
    X0000008  C0000013  -1.000000000000e+00
    X0000008  C0000014   1.000000000000e+00
    X0000008  C0000015  -1.000000000000e+00
    X0000008  C0000016   1.000000000000e+00
    X0000008  C0000017  -1.000000000000e+00
    X0000008  C0000018   1.000000000000e+00
    X0000008  C0000019  -1.000000000000e+00
    X0000008  C0000020   1.000000000000e+00
    X0000008  C0000021  -1.000000000000e+00
    X0000008  C0000022   1.000000000000e+00
    X0000008  C0000023  -1.000000000000e+00
    X0000008  C0000024   1.000000000000e+00
    X0000008  C0000025  -1.000000000000e+00
    X0000008  C0000026   1.000000000000e+00
    X0000008  C0000027  -1.000000000000e+00
    X0000008  C0000028   1.000000000000e+00
    X0000008  C0000029  -1.000000000000e+00
    X0000008  C0000136   1.750000000000e+04
    X0000008  C0000137   1.470000000000e+04
    X0000008  C0000138   3.100000000000e+03
    X0000008  C0000139   1.500000000000e+03
    X0000008  C0000140   1.500000000000e+03
    X0000008  C0000141   1.500000000000e+03
    X0000008  C0000142   1.500000000000e+03
    X0000008  C0000143   3.500000000000e+03
    X0000008  C0000144   1.500000000000e+03
    X0000008  C0000145   1.750000000000e+04
    X0000008  C0000146   3.100000000000e+03
    X0000008  C0000147   1.500000000000e+03
    X0000008  C0000148   1.500000000000e+03
    X0000008  C0000149   1.500000000000e+03
    X0000008  C0000150   1.500000000000e+03
    X0000008  C0000151   1.500000000000e+03
    X0000008  C0000152   1.500000000000e+03
    X0000008  C0000153   1.500000000000e+03
    X0000008  C0000154   1.500000000000e+03
    X0000008  C0000182   1.750000000000e+04
    X0000008  C0000183   1.750000000000e+04
    X0000008  C0000184   1.430000000000e+04
    X0000008  C0000185   1.010000000000e+04
    X0000008  C0000186   1.050000000000e+04
    X0000008  C0000187   2.500000000000e+03
    X0000008  C0000188   1.500000000000e+03
    X0000008  C0000189   1.500000000000e+03
    X0000008  C0000190   1.500000000000e+03
    X0000008  C0000191   1.470000000000e+04
    X0000008  OBJ        3.000000000000e+02
    MARK      'MARKER'                 'INTEND'
    MARK      'MARKER'                 'INTORG'
    X0000009  C0000014   1.000000000000e+00
    X0000009  C0000015  -1.000000000000e+00
    X0000009  C0000016   1.000000000000e+00
    X0000009  C0000017  -1.000000000000e+00
    X0000009  C0000018   1.000000000000e+00
    X0000009  C0000019  -1.000000000000e+00
    X0000009  C0000020   1.000000000000e+00
    X0000009  C0000021  -1.000000000000e+00
    X0000009  C0000022   1.000000000000e+00
    X0000009  C0000023  -1.000000000000e+00
    X0000009  C0000024   1.000000000000e+00
    X0000009  C0000025  -1.000000000000e+00
    X0000009  C0000026   1.000000000000e+00
    X0000009  C0000027  -1.000000000000e+00
    X0000009  C0000028   1.000000000000e+00
    X0000009  C0000029  -1.000000000000e+00
    X0000009  C0000136   1.750000000000e+04
    X0000009  C0000137   3.500000000000e+03
    X0000009  C0000138   1.500000000000e+03
    X0000009  C0000139   1.500000000000e+03
    X0000009  C0000140   1.500000000000e+03
    X0000009  C0000141   1.500000000000e+03
    X0000009  C0000142   1.500000000000e+03
    X0000009  C0000143   2.500000000000e+03
    X0000009  C0000144   1.000000000000e+03
    X0000009  C0000145   3.500000000000e+03
    X0000009  C0000146   3.500000000000e+03
    X0000009  C0000147   3.500000000000e+03
    X0000009  C0000148   1.000000000000e+03
    X0000009  C0000149   3.500000000000e+03
    X0000009  C0000150   1.750000000000e+04
    X0000009  C0000151   1.500000000000e+03
    X0000009  C0000152   1.500000000000e+03
    X0000009  C0000153   1.500000000000e+03
    X0000009  C0000154   1.500000000000e+03
    X0000009  C0000190   3.500000000000e+03
    X0000009  C0000191   2.500000000000e+03
    X0000009  OBJ        3.000000000000e+02
    MARK      'MARKER'                 'INTEND'
    MARK      'MARKER'                 'INTORG'
    X0000010  C0000016   1.000000000000e+00
    X0000010  C0000017  -1.000000000000e+00
    X0000010  C0000018   1.000000000000e+00
    X0000010  C0000019  -1.000000000000e+00
    X0000010  C0000020   1.000000000000e+00
    X0000010  C0000021  -1.000000000000e+00
    X0000010  C0000022   1.000000000000e+00
    X0000010  C0000023  -1.000000000000e+00
    X0000010  C0000024   1.000000000000e+00
    X0000010  C0000025  -1.000000000000e+00
    X0000010  C0000026   1.000000000000e+00
    X0000010  C0000027  -1.000000000000e+00
    X0000010  C0000028   1.000000000000e+00
    X0000010  C0000029  -1.000000000000e+00
    X0000010  C0000136   1.750000000000e+04
    X0000010  C0000137   2.900000000000e+03
    X0000010  C0000138   2.500000000000e+03
    X0000010  C0000139   1.200000000000e+03
    X0000010  C0000140   1.200000000000e+03
    X0000010  C0000141   1.200000000000e+03
    X0000010  C0000142   9.500000000000e+03
    X0000010  C0000143   9.200000000000e+03
    X0000010  C0000144   1.000000000000e+03
    X0000010  C0000145   1.200000000000e+03
    X0000010  C0000146   1.000000000000e+03
    X0000010  C0000147   1.000000000000e+03
    X0000010  C0000148   1.000000000000e+03
    X0000010  C0000149   1.000000000000e+03
    X0000010  C0000150   1.000000000000e+03
    X0000010  C0000151   1.200000000000e+03
    X0000010  C0000152   1.200000000000e+03
    X0000010  C0000153   1.200000000000e+03
    X0000010  C0000154   9.500000000000e+03
    X0000010  OBJ        3.000000000000e+02
    MARK      'MARKER'                 'INTEND'
    MARK      'MARKER'                 'INTORG'
    X0000011  C0000018   1.000000000000e+00
    X0000011  C0000019  -1.000000000000e+00
    X0000011  C0000020   1.000000000000e+00
    X0000011  C0000021  -1.000000000000e+00
    X0000011  C0000022   1.000000000000e+00
    X0000011  C0000023  -1.000000000000e+00
    X0000011  C0000024   1.000000000000e+00
    X0000011  C0000025  -1.000000000000e+00
    X0000011  C0000026   1.000000000000e+00
    X0000011  C0000027  -1.000000000000e+00
    X0000011  C0000028   1.000000000000e+00
    X0000011  C0000029  -1.000000000000e+00
    X0000011  C0000136   1.750000000000e+04
    X0000011  C0000137   5.000000000000e+02
    X0000011  C0000138   5.000000000000e+02
    X0000011  C0000139   1.500000000000e+03
    X0000011  C0000140   5.000000000000e+02
    X0000011  C0000141   5.000000000000e+02
    X0000011  C0000142   4.700000000000e+03
    X0000011  C0000143   5.000000000000e+02
    X0000011  C0000144   5.000000000000e+02
    X0000011  C0000145   5.000000000000e+02
    X0000011  C0000146   5.000000000000e+02
    X0000011  C0000147   5.000000000000e+02
    X0000011  C0000148   5.000000000000e+02
    X0000011  C0000149   5.000000000000e+02
    X0000011  C0000150   1.750000000000e+04
    X0000011  C0000151   1.750000000000e+04
    X0000011  C0000152   5.000000000000e+02
    X0000011  C0000153   5.000000000000e+02
    X0000011  C0000154   5.000000000000e+02
    X0000011  OBJ        3.000000000000e+02
    MARK      'MARKER'                 'INTEND'
    MARK      'MARKER'                 'INTORG'
    X0000012  C0000020   1.000000000000e+00
    X0000012  C0000021  -1.000000000000e+00
    X0000012  C0000022   1.000000000000e+00
    X0000012  C0000023  -1.000000000000e+00
    X0000012  C0000024   1.000000000000e+00
    X0000012  C0000025  -1.000000000000e+00
    X0000012  C0000026   1.000000000000e+00
    X0000012  C0000027  -1.000000000000e+00
    X0000012  C0000028   1.000000000000e+00
    X0000012  C0000029  -1.000000000000e+00
    X0000012  C0000136   6.300000000000e+03
    X0000012  C0000137   1.750000000000e+04
    X0000012  C0000138   1.500000000000e+03
    X0000012  C0000139   1.750000000000e+04
    X0000012  C0000140   1.500000000000e+03
    X0000012  C0000141   5.000000000000e+02
    X0000012  C0000142   5.000000000000e+02
    X0000012  C0000143   5.000000000000e+02
    X0000012  C0000144   5.000000000000e+02
    X0000012  C0000145   5.000000000000e+02
    X0000012  C0000146   5.000000000000e+02
    X0000012  C0000147   5.000000000000e+02
    X0000012  C0000148   5.000000000000e+02
    X0000012  C0000149   5.000000000000e+02
    X0000012  C0000150   5.000000000000e+02
    X0000012  C0000151   5.000000000000e+02
    X0000012  C0000152   5.000000000000e+02
    X0000012  C0000153   5.000000000000e+02
    X0000012  C0000154   5.000000000000e+02
    X0000012  C0000155   5.000000000000e+02
    X0000012  C0000156   5.000000000000e+02
    X0000012  C0000157   5.000000000000e+02
    X0000012  C0000158   5.000000000000e+02
    X0000012  C0000161   3.500000000000e+02
    X0000012  OBJ        3.000000000000e+02
    MARK      'MARKER'                 'INTEND'
    MARK      'MARKER'                 'INTORG'
    X0000013  C0000000   1.000000000000e+00
    X0000013  C0000001  -1.000000000000e+00
    X0000013  C0000002   1.000000000000e+00
    X0000013  C0000003  -1.000000000000e+00
    X0000013  C0000004  -9.000000000000e+00
    X0000013  C0000005   9.000000000000e+00
    X0000013  C0000006   1.000000000000e+01
    X0000013  C0000007  -1.000000000000e+01
    X0000013  C0000136   2.300000000000e+03
    X0000013  C0000137   1.750000000000e+04
    X0000013  C0000138   9.300000000000e+03
    X0000013  C0000139   4.000000000000e+02
    X0000013  C0000140   4.000000000000e+02
    X0000013  C0000141   4.000000000000e+02
    X0000013  C0000142   4.000000000000e+02
    X0000013  C0000143   4.000000000000e+02
    X0000013  C0000144   4.000000000000e+02
    X0000013  C0000145   4.000000000000e+02
    X0000013  C0000146   2.500000000000e+02
    X0000013  C0000147   2.500000000000e+02
    X0000013  C0000148   2.500000000000e+02
    X0000013  C0000149   9.000000000000e+03
    X0000013  C0000150   4.000000000000e+02
    X0000013  C0000151   4.000000000000e+02
    X0000013  C0000152   4.000000000000e+02
    X0000013  C0000153   4.000000000000e+02
    X0000013  C0000154   9.000000000000e+03
    X0000013  C0000155   4.000000000000e+02
    X0000013  C0000156   4.000000000000e+02
    X0000013  C0000161   2.500000000000e+02
    X0000013  OBJ        3.000000000000e+02
    MARK      'MARKER'                 'INTEND'
    MARK      'MARKER'                 'INTORG'
    X0000014  C0000022   1.000000000000e+00
    X0000014  C0000023  -1.000000000000e+00
    X0000014  C0000024   1.000000000000e+00
    X0000014  C0000025  -1.000000000000e+00
    X0000014  C0000026   1.000000000000e+00
    X0000014  C0000027  -1.000000000000e+00
    X0000014  C0000028   1.000000000000e+00
    X0000014  C0000029  -1.000000000000e+00
    X0000014  C0000136   7.700000000000e+03
    X0000014  C0000137   1.750000000000e+04
    X0000014  C0000138   5.000000000000e+02
    X0000014  C0000139   1.750000000000e+04
    X0000014  C0000140   8.000000000000e+02
    X0000014  C0000141   5.000000000000e+02
    X0000014  C0000142   5.000000000000e+02
    X0000014  C0000143   5.000000000000e+02
    X0000014  C0000144   5.000000000000e+02
    X0000014  C0000145   5.000000000000e+02
    X0000014  C0000146   5.000000000000e+02
    X0000014  C0000147   5.000000000000e+02
    X0000014  C0000148   5.000000000000e+02
    X0000014  C0000149   5.000000000000e+02
    X0000014  C0000150   5.000000000000e+02
    X0000014  C0000151   5.000000000000e+02
    X0000014  C0000152   5.000000000000e+02
    X0000014  C0000153   5.000000000000e+02
    X0000014  C0000154   5.000000000000e+02
    X0000014  C0000155   5.000000000000e+02
    X0000014  C0000156   5.000000000000e+02
    X0000014  C0000157   5.000000000000e+02
    X0000014  C0000158   5.000000000000e+02
    X0000014  C0000161   3.500000000000e+02
    X0000014  C0000191   1.500000000000e+03
    X0000014  OBJ        3.000000000000e+02
    MARK      'MARKER'                 'INTEND'
    MARK      'MARKER'                 'INTORG'
    X0000015  C0000024   1.000000000000e+00
    X0000015  C0000025  -1.000000000000e+00
    X0000015  C0000026   1.000000000000e+00
    X0000015  C0000027  -1.000000000000e+00
    X0000015  C0000028   1.000000000000e+00
    X0000015  C0000029  -1.000000000000e+00
    X0000015  C0000136   1.900000000000e+03
    X0000015  C0000137   1.750000000000e+04
    X0000015  C0000138   1.050000000000e+04
    X0000015  C0000139   5.000000000000e+02
    X0000015  C0000140   2.500000000000e+02
    X0000015  C0000141   2.500000000000e+02
    X0000015  C0000142   1.100000000000e+03
    X0000015  C0000143   1.050000000000e+04
    X0000015  C0000144   5.000000000000e+02
    X0000015  C0000145   2.500000000000e+02
    X0000015  C0000146   2.500000000000e+02
    X0000015  C0000147   3.900000000000e+03
    X0000015  C0000149   1.000000000000e+02
    X0000015  C0000150   1.000000000000e+02
    X0000015  C0000151   1.000000000000e+02
    X0000015  C0000152   1.000000000000e+02
    X0000015  C0000153   1.000000000000e+02
    X0000015  C0000154   3.900000000000e+03
    X0000015  C0000155   2.500000000000e+02
    X0000015  C0000156   2.500000000000e+02
    X0000015  C0000157   2.500000000000e+02
    X0000015  C0000159   7.000000000000e+02
    X0000015  C0000160   5.000000000000e+02
    X0000015  C0000161   5.000000000000e+02
    X0000015  C0000162   5.000000000000e+02
    X0000015  C0000163   2.500000000000e+02
    X0000015  C0000164   5.000000000000e+02
    X0000015  C0000165   4.700000000000e+03
    X0000015  C0000166   5.000000000000e+02
    X0000015  C0000167   5.000000000000e+02
    X0000015  C0000168   2.500000000000e+02
    X0000015  C0000169   2.500000000000e+02
    X0000015  C0000170   2.500000000000e+02
    X0000015  C0000171   2.500000000000e+02
    X0000015  C0000172   1.000000000000e+02
    X0000015  C0000173   3.900000000000e+03
    X0000015  C0000174   2.500000000000e+02
    X0000015  C0000175   2.500000000000e+02
    X0000015  C0000176   2.500000000000e+02
    X0000015  C0000177   2.500000000000e+02
    X0000015  C0000178   1.000000000000e+02
    X0000015  C0000179   1.000000000000e+02
    X0000015  C0000180   1.000000000000e+02
    X0000015  C0000181   1.000000000000e+02
    X0000015  C0000182   1.000000000000e+02
    X0000015  C0000183   1.000000000000e+02
    X0000015  C0000184   1.000000000000e+02
    X0000015  OBJ        3.000000000000e+02
    MARK      'MARKER'                 'INTEND'
    MARK      'MARKER'                 'INTORG'
    X0000016  C0000026   1.000000000000e+00
    X0000016  C0000027  -1.000000000000e+00
    X0000016  C0000028   1.000000000000e+00
    X0000016  C0000029  -1.000000000000e+00
    X0000016  C0000136   1.000000000000e+03
    X0000016  C0000137   1.750000000000e+04
    X0000016  C0000138   1.750000000000e+04
    X0000016  C0000139   2.500000000000e+02
    X0000016  C0000140   2.500000000000e+02
    X0000016  C0000141   1.500000000000e+02
    X0000016  C0000142   2.500000000000e+02
    X0000016  C0000143   9.000000000000e+03
    X0000016  C0000144   9.000000000000e+03
    X0000016  C0000145   2.500000000000e+02
    X0000016  C0000146   8.750000000000e+03
    X0000016  C0000147   2.500000000000e+02
    X0000016  C0000148   2.500000000000e+02
    X0000016  C0000149   1.500000000000e+02
    X0000016  C0000150   2.500000000000e+02
    X0000016  C0000151   2.500000000000e+02
    X0000016  C0000152   5.350000000000e+03
    X0000016  C0000153   2.500000000000e+02
    X0000016  C0000154   1.500000000000e+02
    X0000016  C0000155   1.500000000000e+02
    X0000016  C0000156   1.500000000000e+02
    X0000016  C0000157   1.500000000000e+02
    X0000016  C0000161   1.000000000000e+02
    X0000016  C0000191   5.000000000000e+02
    X0000016  OBJ        3.000000000000e+02
    MARK      'MARKER'                 'INTEND'
    MARK      'MARKER'                 'INTORG'
    X0000017  C0000028   1.000000000000e+00
    X0000017  C0000029  -1.000000000000e+00
    X0000017  C0000136   1.000000000000e+03
    X0000017  C0000137   1.750000000000e+04
    X0000017  C0000138   1.750000000000e+04
    X0000017  C0000139   3.500000000000e+02
    X0000017  C0000143   1.750000000000e+04
    X0000017  C0000144   5.000000000000e+02
    X0000017  C0000145   9.000000000000e+03
    X0000017  C0000146   1.240000000000e+04
    X0000017  C0000147   2.500000000000e+02
    X0000017  C0000151   3.500000000000e+02
    X0000017  C0000153   3.500000000000e+02
    X0000017  C0000154   9.000000000000e+03
    X0000017  C0000155   1.240000000000e+04
    X0000017  C0000156   1.750000000000e+04
    X0000017  C0000157   2.500000000000e+02
    X0000017  OBJ        3.000000000000e+02
    MARK      'MARKER'                 'INTEND'
    MARK      'MARKER'                 'INTORG'
    X0000018  C0000000   1.000000000000e+00
    X0000018  C0000001  -1.000000000000e+00
    X0000018  C0000002   1.000000000000e+00
    X0000018  C0000003  -1.000000000000e+00
    X0000018  C0000004   1.000000000000e+00
    X0000018  C0000005  -1.000000000000e+00
    X0000018  C0000006  -9.000000000000e+00
    X0000018  C0000007   9.000000000000e+00
    X0000018  C0000008   1.000000000000e+01
    X0000018  C0000009  -1.000000000000e+01
    X0000018  C0000136   1.200000000000e+03
    X0000018  C0000137   1.750000000000e+04
    X0000018  C0000138   1.200000000000e+03
    X0000018  C0000139   3.500000000000e+02
    X0000018  C0000140   3.500000000000e+02
    X0000018  C0000149   3.500000000000e+02
    X0000018  C0000150   3.500000000000e+02
    X0000018  C0000151   3.500000000000e+02
    X0000018  C0000154   3.500000000000e+02
    X0000018  C0000155   3.500000000000e+02
    X0000018  C0000156   3.500000000000e+02
    X0000018  OBJ        3.000000000000e+02
    MARK      'MARKER'                 'INTEND'
    MARK      'MARKER'                 'INTORG'
    X0000019  C0000000   1.000000000000e+00
    X0000019  C0000001  -1.000000000000e+00
    X0000019  C0000002   1.000000000000e+00
    X0000019  C0000003  -1.000000000000e+00
    X0000019  C0000004   1.000000000000e+00
    X0000019  C0000005  -1.000000000000e+00
    X0000019  C0000006   1.000000000000e+00
    X0000019  C0000007  -1.000000000000e+00
    X0000019  C0000008  -9.000000000000e+00
    X0000019  C0000009   9.000000000000e+00
    X0000019  C0000010   1.000000000000e+01
    X0000019  C0000011  -1.000000000000e+01
    X0000019  C0000136   5.700000000000e+03
    X0000019  C0000137   1.750000000000e+04
    X0000019  C0000138   1.750000000000e+04
    X0000019  C0000139   5.000000000000e+02
    X0000019  C0000140   5.000000000000e+02
    X0000019  C0000141   5.000000000000e+02
    X0000019  C0000142   5.000000000000e+02
    X0000019  C0000143   5.000000000000e+02
    X0000019  C0000144   5.000000000000e+02
    X0000019  C0000145   5.000000000000e+02
    X0000019  C0000146   5.000000000000e+02
    X0000019  C0000147   5.000000000000e+02
    X0000019  C0000148   5.000000000000e+02
    X0000019  C0000149   5.000000000000e+02
    X0000019  C0000150   5.000000000000e+02
    X0000019  C0000151   5.000000000000e+02
    X0000019  C0000152   5.000000000000e+02
    X0000019  C0000153   5.000000000000e+02
    X0000019  C0000154   5.000000000000e+02
    X0000019  C0000155   5.000000000000e+02
    X0000019  C0000156   5.000000000000e+02
    X0000019  C0000161   5.500000000000e+02
    X0000019  OBJ        3.000000000000e+02
    MARK      'MARKER'                 'INTEND'
    MARK      'MARKER'                 'INTORG'
    X0000020  C0000000   1.000000000000e+00
    X0000020  C0000001  -1.000000000000e+00
    X0000020  C0000002   1.000000000000e+00
    X0000020  C0000003  -1.000000000000e+00
    X0000020  C0000004   1.000000000000e+00
    X0000020  C0000005  -1.000000000000e+00
    X0000020  C0000006   1.000000000000e+00
    X0000020  C0000007  -1.000000000000e+00
    X0000020  C0000008   1.000000000000e+00
    X0000020  C0000009  -1.000000000000e+00
    X0000020  C0000010  -9.000000000000e+00
    X0000020  C0000011   9.000000000000e+00
    X0000020  C0000012   1.000000000000e+01
    X0000020  C0000013  -1.000000000000e+01
    X0000020  C0000136   7.700000000000e+03
    X0000020  C0000137   6.300000000000e+03
    X0000020  C0000138   5.600000000000e+03
    X0000020  C0000139   5.000000000000e+02
    X0000020  C0000140   5.000000000000e+02
    X0000020  C0000141   5.000000000000e+02
    X0000020  C0000142   8.000000000000e+02
    X0000020  C0000143   1.400000000000e+03
    X0000020  C0000144   5.600000000000e+03
    X0000020  C0000145   5.600000000000e+03
    X0000020  C0000146   5.000000000000e+02
    X0000020  C0000147   5.000000000000e+02
    X0000020  C0000148   8.000000000000e+02
    X0000020  C0000149   8.000000000000e+02
    X0000020  C0000150   5.600000000000e+03
    X0000020  C0000151   5.600000000000e+03
    X0000020  C0000152   5.600000000000e+03
    X0000020  C0000153   5.600000000000e+03
    X0000020  C0000154   5.000000000000e+02
    X0000020  OBJ        3.000000000000e+02
    MARK      'MARKER'                 'INTEND'
    MARK      'MARKER'                 'INTORG'
    X0000021  C0000000   1.000000000000e+00
    X0000021  C0000001  -1.000000000000e+00
    X0000021  C0000002   1.000000000000e+00
    X0000021  C0000003  -1.000000000000e+00
    X0000021  C0000004   1.000000000000e+00
    X0000021  C0000005  -1.000000000000e+00
    X0000021  C0000006   1.000000000000e+00
    X0000021  C0000007  -1.000000000000e+00
    X0000021  C0000008   1.000000000000e+00
    X0000021  C0000009  -1.000000000000e+00
    X0000021  C0000010   1.000000000000e+00
    X0000021  C0000011  -1.000000000000e+00
    X0000021  C0000012  -9.000000000000e+00
    X0000021  C0000013   9.000000000000e+00
    X0000021  C0000014   1.000000000000e+01
    X0000021  C0000015  -1.000000000000e+01
    X0000021  C0000136   1.750000000000e+04
    X0000021  C0000137   1.500000000000e+03
    X0000021  C0000138   8.000000000000e+02
    X0000021  C0000139   5.000000000000e+02
    X0000021  C0000140   5.000000000000e+02
    X0000021  C0000141   8.000000000000e+02
    X0000021  C0000142   1.900000000000e+03
    X0000021  C0000143   1.410000000000e+04
    X0000021  C0000144   1.410000000000e+04
    X0000021  C0000145   1.410000000000e+04
    X0000021  C0000146   5.000000000000e+02
    X0000021  C0000147   5.000000000000e+02
    X0000021  C0000148   5.000000000000e+02
    X0000021  C0000149   8.000000000000e+02
    X0000021  C0000150   5.000000000000e+02
    X0000021  C0000151   5.000000000000e+02
    X0000021  C0000152   5.000000000000e+02
    X0000021  C0000153   5.000000000000e+02
    X0000021  C0000154   5.000000000000e+02
    X0000021  OBJ        3.000000000000e+02
    MARK      'MARKER'                 'INTEND'
    MARK      'MARKER'                 'INTORG'
    X0000022  C0000000   1.000000000000e+00
    X0000022  C0000001  -1.000000000000e+00
    X0000022  C0000002   1.000000000000e+00
    X0000022  C0000003  -1.000000000000e+00
    X0000022  C0000004   1.000000000000e+00
    X0000022  C0000005  -1.000000000000e+00
    X0000022  C0000006   1.000000000000e+00
    X0000022  C0000007  -1.000000000000e+00
    X0000022  C0000008   1.000000000000e+00
    X0000022  C0000009  -1.000000000000e+00
    X0000022  C0000010   1.000000000000e+00
    X0000022  C0000011  -1.000000000000e+00
    X0000022  C0000012   1.000000000000e+00
    X0000022  C0000013  -1.000000000000e+00
    X0000022  C0000014  -9.000000000000e+00
    X0000022  C0000015   9.000000000000e+00
    X0000022  C0000016   1.000000000000e+01
    X0000022  C0000017  -1.000000000000e+01
    X0000022  C0000136   1.750000000000e+04
    X0000022  C0000137   2.100000000000e+03
    X0000022  C0000138   1.500000000000e+03
    X0000022  C0000139   8.000000000000e+02
    X0000022  C0000140   8.000000000000e+02
    X0000022  C0000141   8.000000000000e+02
    X0000022  C0000142   6.300000000000e+03
    X0000022  C0000143   1.000000000000e+03
    X0000022  C0000144   1.000000000000e+03
    X0000022  C0000145   1.000000000000e+03
    X0000022  C0000146   1.000000000000e+03
    X0000022  C0000147   1.000000000000e+03
    X0000022  C0000148   1.000000000000e+03
    X0000022  C0000149   6.300000000000e+03
    X0000022  C0000150   1.000000000000e+03
    X0000022  C0000151   1.600000000000e+03
    X0000022  C0000152   1.000000000000e+03
    X0000022  C0000153   1.600000000000e+03
    X0000022  C0000154   8.000000000000e+02
    X0000022  OBJ        3.000000000000e+02
    MARK      'MARKER'                 'INTEND'
    MARK      'MARKER'                 'INTORG'
    X0000023  C0000000   1.000000000000e+00
    X0000023  C0000001  -1.000000000000e+00
    X0000023  C0000002   1.000000000000e+00
    X0000023  C0000003  -1.000000000000e+00
    X0000023  C0000004   1.000000000000e+00
    X0000023  C0000005  -1.000000000000e+00
    X0000023  C0000006   1.000000000000e+00
    X0000023  C0000007  -1.000000000000e+00
    X0000023  C0000008   1.000000000000e+00
    X0000023  C0000009  -1.000000000000e+00
    X0000023  C0000010   1.000000000000e+00
    X0000023  C0000011  -1.000000000000e+00
    X0000023  C0000012   1.000000000000e+00
    X0000023  C0000013  -1.000000000000e+00
    X0000023  C0000014   1.000000000000e+00
    X0000023  C0000015  -1.000000000000e+00
    X0000023  C0000016  -9.000000000000e+00
    X0000023  C0000017   9.000000000000e+00
    X0000023  C0000018   1.000000000000e+01
    X0000023  C0000019  -1.000000000000e+01
    X0000023  C0000136   1.750000000000e+04
    X0000023  C0000137   7.700000000000e+03
    X0000023  C0000138   2.100000000000e+03
    X0000023  C0000139   2.100000000000e+03
    X0000023  C0000140   2.100000000000e+03
    X0000023  C0000141   6.300000000000e+03
    X0000023  C0000142   6.300000000000e+03
    X0000023  C0000143   6.300000000000e+03
    X0000023  C0000144   6.300000000000e+03
    X0000023  C0000145   2.100000000000e+03
    X0000023  C0000146   2.100000000000e+03
    X0000023  C0000147   6.300000000000e+03
    X0000023  C0000148   6.300000000000e+03
    X0000023  C0000149   2.100000000000e+03
    X0000023  C0000150   1.500000000000e+03
    X0000023  C0000151   1.000000000000e+03
    X0000023  C0000152   1.000000000000e+03
    X0000023  C0000153   1.000000000000e+03
    X0000023  C0000154   1.000000000000e+03
    X0000023  OBJ        3.000000000000e+02
    MARK      'MARKER'                 'INTEND'
    MARK      'MARKER'                 'INTORG'
    X0000024  C0000000   1.000000000000e+00
    X0000024  C0000001  -1.000000000000e+00
    X0000024  C0000002   1.000000000000e+00
    X0000024  C0000003  -1.000000000000e+00
    X0000024  C0000004   1.000000000000e+00
    X0000024  C0000005  -1.000000000000e+00
    X0000024  C0000006   1.000000000000e+00
    X0000024  C0000007  -1.000000000000e+00
    X0000024  C0000008   1.000000000000e+00
    X0000024  C0000009  -1.000000000000e+00
    X0000024  C0000010   1.000000000000e+00
    X0000024  C0000011  -1.000000000000e+00
    X0000024  C0000012   1.000000000000e+00
    X0000024  C0000013  -1.000000000000e+00
    X0000024  C0000014   1.000000000000e+00
    X0000024  C0000015  -1.000000000000e+00
    X0000024  C0000016   1.000000000000e+00
    X0000024  C0000017  -1.000000000000e+00
    X0000024  C0000018  -9.000000000000e+00
    X0000024  C0000019   9.000000000000e+00
    X0000024  C0000020   1.000000000000e+01
    X0000024  C0000021  -1.000000000000e+01
    X0000024  C0000136   1.750000000000e+04
    X0000024  C0000137   1.050000000000e+04
    X0000024  C0000138   2.500000000000e+03
    X0000024  C0000139   1.500000000000e+03
    X0000024  C0000140   1.500000000000e+03
    X0000024  C0000141   1.500000000000e+03
    X0000024  C0000142   1.500000000000e+03
    X0000024  C0000143   1.500000000000e+03
    X0000024  C0000144   2.100000000000e+03
    X0000024  C0000145   1.500000000000e+03
    X0000024  C0000146   1.500000000000e+03
    X0000024  C0000147   1.500000000000e+03
    X0000024  C0000148   1.500000000000e+03
    X0000024  C0000149   1.500000000000e+03
    X0000024  C0000150   1.500000000000e+03
    X0000024  C0000151   1.500000000000e+03
    X0000024  C0000152   1.500000000000e+03
    X0000024  C0000153   1.500000000000e+03
    X0000024  C0000154   1.500000000000e+03
    X0000024  OBJ        3.000000000000e+02
    MARK      'MARKER'                 'INTEND'
    MARK      'MARKER'                 'INTORG'
    X0000025  C0000030  -7.000000000000e+00
    X0000025  C0000031   7.000000000000e+00
    X0000025  C0000032   8.000000000000e+00
    X0000025  C0000033  -8.000000000000e+00
    X0000025  C0000137   1.615000000000e+04
    X0000025  C0000138   1.615000000000e+04
    X0000025  C0000140   3.230000000000e+03
    X0000025  C0000141   3.230000000000e+03
    X0000025  C0000142  -1.400000000000e+02
    X0000025  C0000143  -1.750000000000e+02
    X0000025  C0000144  -1.750000000000e+02
    X0000025  C0000145  -1.750000000000e+02
    X0000025  C0000146  -1.750000000000e+02
    X0000025  C0000147  -1.750000000000e+02
    X0000025  C0000148  -1.750000000000e+02
    X0000025  C0000149  -1.400000000000e+02
    X0000025  C0000150  -1.400000000000e+02
    X0000025  C0000151  -1.400000000000e+02
    X0000025  C0000152  -1.400000000000e+02
    X0000025  C0000153  -1.400000000000e+02
    X0000025  C0000154  -1.400000000000e+02
    X0000025  C0000155   3.230000000000e+03
    X0000025  C0000156  -5.250000000000e+01
    X0000025  C0000157  -1.400000000000e+02
    X0000025  C0000158  -1.400000000000e+02
    X0000025  C0000159   3.177500000000e+03
    X0000025  C0000160   3.230000000000e+03
    X0000025  C0000161   1.130500000000e+04
    X0000025  C0000162  -1.400000000000e+02
    X0000025  C0000163  -1.750000000000e+02
    X0000025  C0000164  -1.400000000000e+02
    X0000025  C0000165   3.090000000000e+03
    X0000025  C0000166  -1.400000000000e+02
    X0000025  C0000167  -1.400000000000e+02
    X0000025  C0000168   3.177500000000e+03
    X0000025  C0000169   1.130500000000e+04
    X0000025  C0000170   1.615000000000e+04
    X0000025  C0000171   1.615000000000e+04
    X0000025  C0000172   1.615000000000e+04
    X0000025  C0000173   1.615000000000e+04
    X0000025  C0000174   1.615000000000e+04
    X0000025  C0000175   1.615000000000e+04
    X0000025  C0000176   1.615000000000e+04
    X0000025  C0000177  -1.400000000000e+02
    X0000025  C0000178  -1.400000000000e+02
    X0000025  C0000179   3.177500000000e+03
    X0000025  C0000180   1.130500000000e+04
    X0000025  C0000181   1.130500000000e+04
    X0000025  C0000182  -1.400000000000e+02
    X0000025  C0000183  -1.750000000000e+02
    X0000025  C0000184  -1.750000000000e+02
    X0000025  C0000185  -1.750000000000e+02
    X0000025  C0000186  -1.750000000000e+02
    X0000025  C0000187  -1.750000000000e+02
    X0000025  C0000188  -1.400000000000e+02
    X0000025  C0000189  -1.400000000000e+02
    X0000025  C0000190   3.177500000000e+03
    X0000025  C0000191  -1.400000000000e+02
    X0000025  OBJ        2.400000000000e+02
    MARK      'MARKER'                 'INTEND'
    MARK      'MARKER'                 'INTORG'
    X0000026  C0000030   1.000000000000e+00
    X0000026  C0000031  -1.000000000000e+00
    X0000026  C0000032  -7.000000000000e+00
    X0000026  C0000033   7.000000000000e+00
    X0000026  C0000034   8.000000000000e+00
    X0000026  C0000035  -8.000000000000e+00
    X0000026  C0000136   7.600000000000e+02
    X0000026  C0000137   1.615000000000e+04
    X0000026  C0000138   4.750000000000e+02
    X0000026  C0000139  -3.500000000000e+01
    X0000026  C0000140   4.400000000000e+02
    X0000026  C0000141   1.288500000000e+04
    X0000026  C0000142  -3.500000000000e+01
    X0000026  C0000143  -8.750000000000e+01
    X0000026  C0000144  -8.750000000000e+01
    X0000026  C0000145  -1.750000000000e+02
    X0000026  C0000146  -1.750000000000e+02
    X0000026  C0000147  -1.750000000000e+02
    X0000026  C0000148  -1.750000000000e+02
    X0000026  C0000149  -3.500000000000e+01
    X0000026  C0000150  -8.750000000000e+01
    X0000026  C0000151  -8.750000000000e+01
    X0000026  C0000152  -3.500000000000e+01
    X0000026  C0000153  -8.750000000000e+01
    X0000026  C0000154  -3.500000000000e+01
    X0000026  C0000155  -3.500000000000e+01
    X0000026  C0000156  -8.750000000000e+01
    X0000026  C0000157  -1.750000000000e+02
    X0000026  C0000158  -3.500000000000e+01
    X0000026  C0000159   1.288500000000e+04
    X0000026  C0000160   1.288500000000e+04
    X0000026  C0000161   7.250000000000e+02
    X0000026  C0000162  -8.750000000000e+01
    X0000026  C0000163  -8.750000000000e+01
    X0000026  C0000164  -1.750000000000e+02
    X0000026  C0000165  -3.500000000000e+01
    X0000026  C0000166  -8.750000000000e+01
    X0000026  C0000167  -3.500000000000e+01
    X0000026  C0000168   1.288500000000e+04
    X0000026  C0000169   1.292000000000e+04
    X0000026  C0000170  -3.500000000000e+01
    X0000026  C0000171  -3.500000000000e+01
    X0000026  C0000172  -3.500000000000e+01
    X0000026  C0000173   1.288500000000e+04
    X0000026  C0000174   1.288500000000e+04
    X0000026  C0000175  -3.500000000000e+01
    X0000026  C0000176  -8.750000000000e+01
    X0000026  C0000177  -8.750000000000e+01
    X0000026  C0000178  -3.500000000000e+01
    X0000026  C0000179   1.288500000000e+04
    X0000026  C0000180  -3.500000000000e+01
    X0000026  C0000181  -8.750000000000e+01
    X0000026  C0000182  -1.750000000000e+02
    X0000026  C0000183  -1.750000000000e+02
    X0000026  C0000184  -1.750000000000e+02
    X0000026  C0000185  -1.750000000000e+02
    X0000026  C0000186  -1.750000000000e+02
    X0000026  C0000187  -1.750000000000e+02
    X0000026  C0000188  -1.750000000000e+02
    X0000026  C0000189  -1.750000000000e+02
    X0000026  C0000190  -1.750000000000e+02
    X0000026  C0000191  -1.750000000000e+02
    X0000026  OBJ        2.400000000000e+02
    MARK      'MARKER'                 'INTEND'
    MARK      'MARKER'                 'INTORG'
    X0000027  C0000036   1.000000000000e+00
    X0000027  C0000037  -1.000000000000e+00
    X0000027  C0000038   1.000000000000e+00
    X0000027  C0000039  -1.000000000000e+00
    X0000027  C0000040   1.000000000000e+00
    X0000027  C0000041  -1.000000000000e+00
    X0000027  C0000042   1.000000000000e+00
    X0000027  C0000043  -1.000000000000e+00
    X0000027  C0000044   1.000000000000e+00
    X0000027  C0000045  -1.000000000000e+00
    X0000027  C0000046   1.000000000000e+00
    X0000027  C0000047  -1.000000000000e+00
    X0000027  C0000048   1.000000000000e+00
    X0000027  C0000049  -1.000000000000e+00
    X0000027  C0000050  -7.000000000000e+00
    X0000027  C0000051   7.000000000000e+00
    X0000027  C0000052   8.000000000000e+00
    X0000027  C0000053  -8.000000000000e+00
    X0000027  C0000136   1.615000000000e+04
    X0000027  C0000137   1.615000000000e+04
    X0000027  C0000138   2.850000000000e+03
    X0000027  C0000139   9.500000000000e+02
    X0000027  C0000140   9.500000000000e+02
    X0000027  C0000141   9.500000000000e+02
    X0000027  C0000142   1.520000000000e+03
    X0000027  C0000143   1.520000000000e+03
    X0000027  C0000144   9.500000000000e+02
    X0000027  C0000145   9.500000000000e+02
    X0000027  C0000146   9.500000000000e+02
    X0000027  C0000147   9.500000000000e+02
    X0000027  C0000148   9.500000000000e+02
    X0000027  C0000149   9.500000000000e+02
    X0000027  C0000150   9.500000000000e+02
    X0000027  C0000151   9.500000000000e+02
    X0000027  C0000152   9.500000000000e+02
    X0000027  C0000153   9.500000000000e+02
    X0000027  C0000154   9.500000000000e+02
    X0000027  C0000162   2.850000000000e+03
    X0000027  C0000163   1.520000000000e+03
    X0000027  C0000164   9.500000000000e+02
    X0000027  C0000165   9.500000000000e+02
    X0000027  C0000166   9.500000000000e+02
    X0000027  C0000167   9.500000000000e+02
    X0000027  C0000168   9.500000000000e+02
    X0000027  C0000169   9.500000000000e+02
    X0000027  C0000170   1.520000000000e+03
    X0000027  C0000171   1.520000000000e+03
    X0000027  C0000172   5.510000000000e+03
    X0000027  C0000173   6.460000000000e+03
    X0000027  C0000174   6.460000000000e+03
    X0000027  C0000175   9.500000000000e+02
    X0000027  C0000176   9.500000000000e+02
    X0000027  C0000177   9.500000000000e+02
    X0000027  C0000178   9.500000000000e+02
    X0000027  C0000179   9.500000000000e+02
    X0000027  C0000180   9.500000000000e+02
    X0000027  OBJ        2.400000000000e+02
    MARK      'MARKER'                 'INTEND'
    MARK      'MARKER'                 'INTORG'
    X0000028  C0000038   1.000000000000e+00
    X0000028  C0000039  -1.000000000000e+00
    X0000028  C0000040   1.000000000000e+00
    X0000028  C0000041  -1.000000000000e+00
    X0000028  C0000042   1.000000000000e+00
    X0000028  C0000043  -1.000000000000e+00
    X0000028  C0000044   1.000000000000e+00
    X0000028  C0000045  -1.000000000000e+00
    X0000028  C0000046   1.000000000000e+00
    X0000028  C0000047  -1.000000000000e+00
    X0000028  C0000048   1.000000000000e+00
    X0000028  C0000049  -1.000000000000e+00
    X0000028  C0000050   1.000000000000e+00
    X0000028  C0000051  -1.000000000000e+00
    X0000028  C0000052  -7.000000000000e+00
    X0000028  C0000053   7.000000000000e+00
    X0000028  C0000054   8.000000000000e+00
    X0000028  C0000055  -8.000000000000e+00
    X0000028  C0000136   1.615000000000e+04
    X0000028  C0000137   1.615000000000e+04
    X0000028  C0000138   2.850000000000e+03
    X0000028  C0000139   2.280000000000e+03
    X0000028  C0000140   2.280000000000e+03
    X0000028  C0000141   8.930000000000e+03
    X0000028  C0000142   1.900000000000e+03
    X0000028  C0000143   1.900000000000e+03
    X0000028  C0000144   9.500000000000e+02
    X0000028  C0000145   9.500000000000e+02
    X0000028  C0000146   9.500000000000e+02
    X0000028  C0000147   9.500000000000e+02
    X0000028  C0000148   1.900000000000e+03
    X0000028  C0000149   1.900000000000e+03
    X0000028  C0000150   9.500000000000e+02
    X0000028  C0000151   9.500000000000e+02
    X0000028  C0000152   9.500000000000e+02
    X0000028  C0000153   9.500000000000e+02
    X0000028  C0000154   9.500000000000e+02
    X0000028  C0000176   2.850000000000e+03
    X0000028  C0000177   9.500000000000e+03
    X0000028  C0000178   2.280000000000e+03
    X0000028  C0000179   1.900000000000e+03
    X0000028  C0000180   1.900000000000e+03
    X0000028  C0000181   9.500000000000e+02
    X0000028  C0000182   9.500000000000e+02
    X0000028  C0000183   9.500000000000e+02
    X0000028  C0000184   9.500000000000e+02
    X0000028  C0000185   9.500000000000e+02
    X0000028  C0000186   9.500000000000e+02
    X0000028  C0000187   9.500000000000e+02
    X0000028  C0000188   9.500000000000e+02
    X0000028  C0000189   9.500000000000e+02
    X0000028  C0000190   9.500000000000e+02
    X0000028  C0000191   9.500000000000e+02
    X0000028  OBJ        2.400000000000e+02
    MARK      'MARKER'                 'INTEND'
    MARK      'MARKER'                 'INTORG'
    X0000029  C0000040   1.000000000000e+00
    X0000029  C0000041  -1.000000000000e+00
    X0000029  C0000042   1.000000000000e+00
    X0000029  C0000043  -1.000000000000e+00
    X0000029  C0000044   1.000000000000e+00
    X0000029  C0000045  -1.000000000000e+00
    X0000029  C0000046   1.000000000000e+00
    X0000029  C0000047  -1.000000000000e+00
    X0000029  C0000048   1.000000000000e+00
    X0000029  C0000049  -1.000000000000e+00
    X0000029  C0000050   1.000000000000e+00
    X0000029  C0000051  -1.000000000000e+00
    X0000029  C0000052   1.000000000000e+00
    X0000029  C0000053  -1.000000000000e+00
    X0000029  C0000054  -7.000000000000e+00
    X0000029  C0000055   7.000000000000e+00
    X0000029  C0000056   8.000000000000e+00
    X0000029  C0000057  -8.000000000000e+00
    X0000029  C0000136   1.615000000000e+04
    X0000029  C0000137   1.615000000000e+04
    X0000029  C0000138   2.850000000000e+03
    X0000029  C0000139   1.330000000000e+03
    X0000029  C0000140   1.330000000000e+03
    X0000029  C0000141   4.560000000000e+03
    X0000029  C0000142   1.330000000000e+03
    X0000029  C0000143   1.330000000000e+03
    X0000029  C0000144   1.330000000000e+03
    X0000029  C0000145   9.500000000000e+02
    X0000029  C0000146   9.500000000000e+02
    X0000029  C0000147   9.500000000000e+02
    X0000029  C0000148   9.500000000000e+02
    X0000029  C0000149   9.500000000000e+02
    X0000029  C0000150   9.500000000000e+02
    X0000029  C0000151   9.500000000000e+02
    X0000029  C0000152   9.500000000000e+02
    X0000029  C0000153   9.500000000000e+02
    X0000029  C0000154   9.500000000000e+02
    X0000029  C0000181   2.850000000000e+03
    X0000029  C0000182   5.510000000000e+03
    X0000029  C0000183   1.615000000000e+04
    X0000029  C0000184   2.850000000000e+03
    X0000029  C0000185   1.330000000000e+03
    X0000029  C0000186   1.330000000000e+03
    X0000029  C0000187   1.330000000000e+03
    X0000029  C0000188   1.330000000000e+03
    X0000029  C0000189   9.500000000000e+02
    X0000029  C0000190   9.500000000000e+02
    X0000029  C0000191   9.500000000000e+02
    X0000029  OBJ        2.400000000000e+02
    MARK      'MARKER'                 'INTEND'
    MARK      'MARKER'                 'INTORG'
    X0000030  C0000042   1.000000000000e+00
    X0000030  C0000043  -1.000000000000e+00
    X0000030  C0000044   1.000000000000e+00
    X0000030  C0000045  -1.000000000000e+00
    X0000030  C0000046   1.000000000000e+00
    X0000030  C0000047  -1.000000000000e+00
    X0000030  C0000048   1.000000000000e+00
    X0000030  C0000049  -1.000000000000e+00
    X0000030  C0000050   1.000000000000e+00
    X0000030  C0000051  -1.000000000000e+00
    X0000030  C0000052   1.000000000000e+00
    X0000030  C0000053  -1.000000000000e+00
    X0000030  C0000054   1.000000000000e+00
    X0000030  C0000055  -1.000000000000e+00
    X0000030  C0000056  -7.000000000000e+00
    X0000030  C0000057   7.000000000000e+00
    X0000030  C0000058   8.000000000000e+00
    X0000030  C0000059  -8.000000000000e+00
    X0000030  C0000136   1.615000000000e+04
    X0000030  C0000137   1.615000000000e+04
    X0000030  C0000138   9.500000000000e+03
    X0000030  C0000139   2.470000000000e+03
    X0000030  C0000140   9.500000000000e+03
    X0000030  C0000141   1.349000000000e+04
    X0000030  C0000142   2.470000000000e+03
    X0000030  C0000143   2.470000000000e+03
    X0000030  C0000144   2.470000000000e+03
    X0000030  C0000145   1.900000000000e+03
    X0000030  C0000146   1.900000000000e+03
    X0000030  C0000147   1.900000000000e+03
    X0000030  C0000148   1.900000000000e+03
    X0000030  C0000149   1.900000000000e+03
    X0000030  C0000150   1.900000000000e+03
    X0000030  C0000151   1.900000000000e+03
    X0000030  C0000152   1.900000000000e+03
    X0000030  C0000153   1.900000000000e+03
    X0000030  C0000154   1.900000000000e+03
    X0000030  OBJ        2.400000000000e+02
    MARK      'MARKER'                 'INTEND'
    MARK      'MARKER'                 'INTORG'
    X0000031  C0000044   1.000000000000e+00
    X0000031  C0000045  -1.000000000000e+00
    X0000031  C0000046   1.000000000000e+00
    X0000031  C0000047  -1.000000000000e+00
    X0000031  C0000048   1.000000000000e+00
    X0000031  C0000049  -1.000000000000e+00
    X0000031  C0000050   1.000000000000e+00
    X0000031  C0000051  -1.000000000000e+00
    X0000031  C0000052   1.000000000000e+00
    X0000031  C0000053  -1.000000000000e+00
    X0000031  C0000054   1.000000000000e+00
    X0000031  C0000055  -1.000000000000e+00
    X0000031  C0000056   1.000000000000e+00
    X0000031  C0000057  -1.000000000000e+00
    X0000031  C0000058  -7.000000000000e+00
    X0000031  C0000059   7.000000000000e+00
    X0000031  C0000060   8.000000000000e+00
    X0000031  C0000061  -8.000000000000e+00
    X0000031  C0000136   1.615000000000e+04
    X0000031  C0000137   9.500000000000e+03
    X0000031  C0000138   1.900000000000e+03
    X0000031  C0000139   1.330000000000e+03
    X0000031  C0000140   1.330000000000e+03
    X0000031  C0000141   3.990000000000e+03
    X0000031  C0000142   1.330000000000e+03
    X0000031  C0000143   1.330000000000e+03
    X0000031  C0000144   9.500000000000e+02
    X0000031  C0000145   1.330000000000e+03
    X0000031  C0000146   1.330000000000e+03
    X0000031  C0000147   9.500000000000e+02
    X0000031  C0000148   9.500000000000e+02
    X0000031  C0000149   1.330000000000e+03
    X0000031  C0000150   3.990000000000e+03
    X0000031  C0000151   3.990000000000e+03
    X0000031  C0000152   3.990000000000e+03
    X0000031  C0000153   3.990000000000e+03
    X0000031  C0000154   3.990000000000e+03
    X0000031  OBJ        2.400000000000e+02
    MARK      'MARKER'                 'INTEND'
    MARK      'MARKER'                 'INTORG'
    X0000032  C0000046   1.000000000000e+00
    X0000032  C0000047  -1.000000000000e+00
    X0000032  C0000048   1.000000000000e+00
    X0000032  C0000049  -1.000000000000e+00
    X0000032  C0000050   1.000000000000e+00
    X0000032  C0000051  -1.000000000000e+00
    X0000032  C0000052   1.000000000000e+00
    X0000032  C0000053  -1.000000000000e+00
    X0000032  C0000054   1.000000000000e+00
    X0000032  C0000055  -1.000000000000e+00
    X0000032  C0000056   1.000000000000e+00
    X0000032  C0000057  -1.000000000000e+00
    X0000032  C0000058   1.000000000000e+00
    X0000032  C0000059  -1.000000000000e+00
    X0000032  C0000060  -7.000000000000e+00
    X0000032  C0000061   7.000000000000e+00
    X0000032  C0000062   8.000000000000e+00
    X0000032  C0000063  -8.000000000000e+00
    X0000032  C0000136   1.615000000000e+04
    X0000032  C0000137   1.349000000000e+04
    X0000032  C0000138   2.470000000000e+03
    X0000032  C0000139   9.500000000000e+02
    X0000032  C0000140   9.500000000000e+02
    X0000032  C0000141   9.500000000000e+02
    X0000032  C0000142   9.500000000000e+02
    X0000032  C0000143   2.850000000000e+03
    X0000032  C0000144   9.500000000000e+02
    X0000032  C0000145   1.615000000000e+04
    X0000032  C0000146   2.470000000000e+03
    X0000032  C0000147   9.500000000000e+02
    X0000032  C0000148   9.500000000000e+02
    X0000032  C0000149   9.500000000000e+02
    X0000032  C0000150   9.500000000000e+02
    X0000032  C0000151   9.500000000000e+02
    X0000032  C0000152   9.500000000000e+02
    X0000032  C0000153   9.500000000000e+02
    X0000032  C0000154   9.500000000000e+02
    X0000032  C0000191   1.349000000000e+04
    X0000032  OBJ        2.400000000000e+02
    MARK      'MARKER'                 'INTEND'
    MARK      'MARKER'                 'INTORG'
    X0000033  C0000048   1.000000000000e+00
    X0000033  C0000049  -1.000000000000e+00
    X0000033  C0000050   1.000000000000e+00
    X0000033  C0000051  -1.000000000000e+00
    X0000033  C0000052   1.000000000000e+00
    X0000033  C0000053  -1.000000000000e+00
    X0000033  C0000054   1.000000000000e+00
    X0000033  C0000055  -1.000000000000e+00
    X0000033  C0000056   1.000000000000e+00
    X0000033  C0000057  -1.000000000000e+00
    X0000033  C0000058   1.000000000000e+00
    X0000033  C0000059  -1.000000000000e+00
    X0000033  C0000060   1.000000000000e+00
    X0000033  C0000061  -1.000000000000e+00
    X0000033  C0000062  -7.000000000000e+00
    X0000033  C0000063   7.000000000000e+00
    X0000033  C0000136   1.615000000000e+04
    X0000033  C0000137   2.850000000000e+03
    X0000033  C0000138   9.500000000000e+02
    X0000033  C0000139   9.500000000000e+02
    X0000033  C0000140   9.500000000000e+02
    X0000033  C0000141   9.500000000000e+02
    X0000033  C0000142   9.500000000000e+02
    X0000033  C0000143   1.900000000000e+03
    X0000033  C0000144   4.750000000000e+02
    X0000033  C0000145   2.850000000000e+03
    X0000033  C0000146   2.850000000000e+03
    X0000033  C0000147   2.850000000000e+03
    X0000033  C0000148   4.750000000000e+02
    X0000033  C0000149   2.850000000000e+03
    X0000033  C0000150   1.615000000000e+04
    X0000033  C0000151   9.500000000000e+02
    X0000033  C0000152   9.500000000000e+02
    X0000033  C0000153   9.500000000000e+02
    X0000033  C0000154   9.500000000000e+02
    X0000033  C0000189   2.850000000000e+03
    X0000033  C0000190   2.850000000000e+03
    X0000033  C0000191   1.900000000000e+03
    X0000033  OBJ        2.400000000000e+02
    MARK      'MARKER'                 'INTEND'
    MARK      'MARKER'                 'INTORG'
    X0000034  C0000050   1.000000000000e+00
    X0000034  C0000051  -1.000000000000e+00
    X0000034  C0000052   1.000000000000e+00
    X0000034  C0000053  -1.000000000000e+00
    X0000034  C0000054   1.000000000000e+00
    X0000034  C0000055  -1.000000000000e+00
    X0000034  C0000056   1.000000000000e+00
    X0000034  C0000057  -1.000000000000e+00
    X0000034  C0000058   1.000000000000e+00
    X0000034  C0000059  -1.000000000000e+00
    X0000034  C0000060   1.000000000000e+00
    X0000034  C0000061  -1.000000000000e+00
    X0000034  C0000062   1.000000000000e+00
    X0000034  C0000063  -1.000000000000e+00
    X0000034  C0000136   1.615000000000e+04
    X0000034  C0000137   2.280000000000e+03
    X0000034  C0000138   1.900000000000e+03
    X0000034  C0000139   6.650000000000e+02
    X0000034  C0000140   6.650000000000e+02
    X0000034  C0000141   6.650000000000e+02
    X0000034  C0000142   8.550000000000e+03
    X0000034  C0000143   8.265000000000e+03
    X0000034  C0000144   4.750000000000e+02
    X0000034  C0000145   6.650000000000e+02
    X0000034  C0000146   4.750000000000e+02
    X0000034  C0000147   4.750000000000e+02
    X0000034  C0000148   4.750000000000e+02
    X0000034  C0000149   4.750000000000e+02
    X0000034  C0000150   4.750000000000e+02
    X0000034  C0000151   6.650000000000e+02
    X0000034  C0000152   6.650000000000e+02
    X0000034  C0000153   6.650000000000e+02
    X0000034  C0000154   8.550000000000e+03
    X0000034  OBJ        2.400000000000e+02
    MARK      'MARKER'                 'INTEND'
    MARK      'MARKER'                 'INTORG'
    X0000035  C0000052   1.000000000000e+00
    X0000035  C0000053  -1.000000000000e+00
    X0000035  C0000054   1.000000000000e+00
    X0000035  C0000055  -1.000000000000e+00
    X0000035  C0000056   1.000000000000e+00
    X0000035  C0000057  -1.000000000000e+00
    X0000035  C0000058   1.000000000000e+00
    X0000035  C0000059  -1.000000000000e+00
    X0000035  C0000060   1.000000000000e+00
    X0000035  C0000061  -1.000000000000e+00
    X0000035  C0000062   1.000000000000e+00
    X0000035  C0000063  -1.000000000000e+00
    X0000035  C0000136   1.615000000000e+04
    X0000035  C0000139   9.500000000000e+02
    X0000035  C0000142   3.990000000000e+03
    X0000035  C0000150   1.615000000000e+04
    X0000035  C0000151   1.615000000000e+04
    X0000035  C0000155   9.500000000000e+02
    X0000035  C0000156   6.650000000000e+02
    X0000035  C0000171   2.850000000000e+03
    X0000035  C0000172   5.700000000000e+02
    X0000035  OBJ        2.400000000000e+02
    MARK      'MARKER'                 'INTEND'
    MARK      'MARKER'                 'INTORG'
    X0000036  C0000054   1.000000000000e+00
    X0000036  C0000055  -1.000000000000e+00
    X0000036  C0000056   1.000000000000e+00
    X0000036  C0000057  -1.000000000000e+00
    X0000036  C0000058   1.000000000000e+00
    X0000036  C0000059  -1.000000000000e+00
    X0000036  C0000060   1.000000000000e+00
    X0000036  C0000061  -1.000000000000e+00
    X0000036  C0000062   1.000000000000e+00
    X0000036  C0000063  -1.000000000000e+00
    X0000036  C0000136   5.510000000000e+03
    X0000036  C0000137   1.615000000000e+04
    X0000036  C0000138   9.500000000000e+02
    X0000036  C0000139   1.615000000000e+04
    X0000036  C0000140   9.500000000000e+02
    X0000036  C0000185   9.500000000000e+02
    X0000036  OBJ        2.400000000000e+02
    MARK      'MARKER'                 'INTEND'
    MARK      'MARKER'                 'INTORG'
    X0000037  C0000030   1.000000000000e+00
    X0000037  C0000031  -1.000000000000e+00
    X0000037  C0000032   1.000000000000e+00
    X0000037  C0000033  -1.000000000000e+00
    X0000037  C0000034  -7.000000000000e+00
    X0000037  C0000035   7.000000000000e+00
    X0000037  C0000036   8.000000000000e+00
    X0000037  C0000037  -8.000000000000e+00
    X0000037  C0000136   1.710000000000e+03
    X0000037  C0000137   1.615000000000e+04
    X0000037  C0000138   8.360000000000e+03
    X0000037  C0000139  -3.500000000000e+01
    X0000037  C0000140  -3.500000000000e+01
    X0000037  C0000141  -3.500000000000e+01
    X0000037  C0000142  -3.500000000000e+01
    X0000037  C0000143  -3.500000000000e+01
    X0000037  C0000144  -3.500000000000e+01
    X0000037  C0000145  -3.500000000000e+01
    X0000037  C0000146  -8.750000000000e+01
    X0000037  C0000147  -8.750000000000e+01
    X0000037  C0000148  -8.750000000000e+01
    X0000037  C0000149   8.075000000000e+03
    X0000037  C0000150  -3.500000000000e+01
    X0000037  C0000151  -3.500000000000e+01
    X0000037  C0000152  -3.500000000000e+01
    X0000037  C0000153  -3.500000000000e+01
    X0000037  C0000154   8.075000000000e+03
    X0000037  C0000155  -3.500000000000e+01
    X0000037  C0000156  -3.500000000000e+01
    X0000037  C0000157  -3.500000000000e+01
    X0000037  C0000158  -3.500000000000e+01
    X0000037  C0000159  -3.500000000000e+01
    X0000037  C0000160  -3.500000000000e+01
    X0000037  C0000161  -3.500000000000e+01
    X0000037  C0000162  -3.500000000000e+01
    X0000037  C0000163  -3.500000000000e+01
    X0000037  C0000164  -3.500000000000e+01
    X0000037  C0000165  -3.500000000000e+01
    X0000037  C0000166  -8.750000000000e+01
    X0000037  C0000167  -8.750000000000e+01
    X0000037  C0000168  -8.750000000000e+01
    X0000037  C0000169  -8.750000000000e+01
    X0000037  C0000170  -8.750000000000e+01
    X0000037  C0000171  -8.750000000000e+01
    X0000037  C0000172  -8.750000000000e+01
    X0000037  C0000173   8.075000000000e+03
    X0000037  C0000174  -3.500000000000e+01
    X0000037  C0000175  -3.500000000000e+01
    X0000037  C0000176  -3.500000000000e+01
    X0000037  C0000177  -3.500000000000e+01
    X0000037  C0000178  -3.500000000000e+01
    X0000037  C0000179  -3.500000000000e+01
    X0000037  C0000180  -3.500000000000e+01
    X0000037  C0000181  -8.750000000000e+01
    X0000037  C0000182  -8.750000000000e+01
    X0000037  C0000183  -8.750000000000e+01
    X0000037  C0000184  -8.750000000000e+01
    X0000037  C0000185  -8.750000000000e+01
    X0000037  C0000186  -8.750000000000e+01
    X0000037  C0000187  -8.750000000000e+01
    X0000037  C0000188  -8.750000000000e+01
    X0000037  C0000189  -8.750000000000e+01
    X0000037  C0000190  -8.750000000000e+01
    X0000037  C0000191  -8.750000000000e+01
    X0000037  OBJ        2.400000000000e+02
    MARK      'MARKER'                 'INTEND'
    MARK      'MARKER'                 'INTORG'
    X0000038  C0000056   1.000000000000e+00
    X0000038  C0000057  -1.000000000000e+00
    X0000038  C0000058   1.000000000000e+00
    X0000038  C0000059  -1.000000000000e+00
    X0000038  C0000060   1.000000000000e+00
    X0000038  C0000061  -1.000000000000e+00
    X0000038  C0000062   1.000000000000e+00
    X0000038  C0000063  -1.000000000000e+00
    X0000038  C0000136   6.840000000000e+03
    X0000038  C0000137   1.615000000000e+04
    X0000038  C0000139   1.615000000000e+04
    X0000038  C0000140   2.850000000000e+02
    X0000038  C0000175   7.600000000000e+02
    X0000038  C0000176   9.500000000000e+02
    X0000038  C0000177   2.850000000000e+02
    X0000038  C0000191   9.500000000000e+02
    X0000038  OBJ        2.400000000000e+02
    MARK      'MARKER'                 'INTEND'
    MARK      'MARKER'                 'INTORG'
    X0000039  C0000058   1.000000000000e+00
    X0000039  C0000059  -1.000000000000e+00
    X0000039  C0000060   1.000000000000e+00
    X0000039  C0000061  -1.000000000000e+00
    X0000039  C0000062   1.000000000000e+00
    X0000039  C0000063  -1.000000000000e+00
    X0000039  C0000136   1.330000000000e+03
    X0000039  C0000137   1.615000000000e+04
    X0000039  C0000138   9.500000000000e+03
    X0000039  C0000140  -8.750000000000e+01
    X0000039  C0000141  -8.750000000000e+01
    X0000039  C0000142   5.700000000000e+02
    X0000039  C0000143   9.500000000000e+03
    X0000039  C0000145  -8.750000000000e+01
    X0000039  C0000146  -8.750000000000e+01
    X0000039  C0000147   3.230000000000e+03
    X0000039  C0000148  -1.750000000000e+02
    X0000039  C0000149  -1.400000000000e+02
    X0000039  C0000150  -1.400000000000e+02
    X0000039  C0000151  -1.400000000000e+02
    X0000039  C0000152  -1.400000000000e+02
    X0000039  C0000153  -1.400000000000e+02
    X0000039  C0000154   3.230000000000e+03
    X0000039  C0000155  -8.750000000000e+01
    X0000039  C0000156  -8.750000000000e+01
    X0000039  C0000157  -8.750000000000e+01
    X0000039  C0000158   3.230000000000e+03
    X0000039  C0000159   1.900000000000e+02
    X0000039  C0000163  -8.750000000000e+01
    X0000039  C0000165   3.990000000000e+03
    X0000039  C0000168  -8.750000000000e+01
    X0000039  C0000169  -8.750000000000e+01
    X0000039  C0000170  -8.750000000000e+01
    X0000039  C0000171  -8.750000000000e+01
    X0000039  C0000172  -1.400000000000e+02
    X0000039  C0000173   3.230000000000e+03
    X0000039  C0000174  -8.750000000000e+01
    X0000039  C0000175  -8.750000000000e+01
    X0000039  C0000176  -8.750000000000e+01
    X0000039  C0000177  -8.750000000000e+01
    X0000039  C0000178  -1.400000000000e+02
    X0000039  C0000179  -1.400000000000e+02
    X0000039  C0000180  -1.400000000000e+02
    X0000039  C0000181  -1.400000000000e+02
    X0000039  C0000182  -1.400000000000e+02
    X0000039  C0000183  -1.400000000000e+02
    X0000039  C0000184  -1.400000000000e+02
    X0000039  C0000185  -1.400000000000e+02
    X0000039  C0000186  -1.400000000000e+02
    X0000039  C0000187  -1.400000000000e+02
    X0000039  C0000188  -1.400000000000e+02
    X0000039  C0000189  -1.400000000000e+02
    X0000039  C0000190  -1.400000000000e+02
    X0000039  C0000191  -1.400000000000e+02
    X0000039  OBJ        2.400000000000e+02
    MARK      'MARKER'                 'INTEND'
    MARK      'MARKER'                 'INTORG'
    X0000040  C0000060   1.000000000000e+00
    X0000040  C0000061  -1.000000000000e+00
    X0000040  C0000062   1.000000000000e+00
    X0000040  C0000063  -1.000000000000e+00
    X0000040  C0000136   4.750000000000e+02
    X0000040  C0000137   1.615000000000e+04
    X0000040  C0000138   1.615000000000e+04
    X0000040  C0000139  -8.750000000000e+01
    X0000040  C0000140  -8.750000000000e+01
    X0000040  C0000141  -1.225000000000e+02
    X0000040  C0000142  -8.750000000000e+01
    X0000040  C0000143   8.075000000000e+03
    X0000040  C0000144   8.075000000000e+03
    X0000040  C0000145  -8.750000000000e+01
    X0000040  C0000146   7.987500000000e+03
    X0000040  C0000147  -8.750000000000e+01
    X0000040  C0000148  -8.750000000000e+01
    X0000040  C0000149  -1.225000000000e+02
    X0000040  C0000150  -8.750000000000e+01
    X0000040  C0000151  -8.750000000000e+01
    X0000040  C0000152   4.757500000000e+03
    X0000040  C0000153  -8.750000000000e+01
    X0000040  C0000154  -1.225000000000e+02
    X0000040  C0000155  -1.225000000000e+02
    X0000040  C0000156  -1.225000000000e+02
    X0000040  C0000157  -1.225000000000e+02
    X0000040  C0000158  -1.225000000000e+02
    X0000040  C0000159  -1.225000000000e+02
    X0000040  C0000160  -8.750000000000e+01
    X0000040  C0000161  -8.750000000000e+01
    X0000040  C0000162  -1.225000000000e+02
    X0000040  C0000163   4.757500000000e+03
    X0000040  C0000164   8.075000000000e+03
    X0000040  C0000165  -8.750000000000e+01
    X0000040  C0000166  -8.750000000000e+01
    X0000040  C0000167  -1.225000000000e+02
    X0000040  C0000168  -1.225000000000e+02
    X0000040  C0000169  -1.225000000000e+02
    X0000040  C0000170  -1.225000000000e+02
    X0000040  C0000171  -1.225000000000e+02
    X0000040  C0000172  -1.225000000000e+02
    X0000040  C0000173  -8.750000000000e+01
    X0000040  C0000174   7.987500000000e+03
    X0000040  C0000175   3.875000000000e+02
    X0000040  C0000176   3.875000000000e+02
    X0000040  C0000177  -1.225000000000e+02
    X0000040  C0000178  -1.225000000000e+02
    X0000040  C0000179  -1.225000000000e+02
    X0000040  C0000180  -1.225000000000e+02
    X0000040  C0000181  -1.225000000000e+02
    X0000040  C0000182  -1.225000000000e+02
    X0000040  C0000183  -1.225000000000e+02
    X0000040  C0000184  -1.225000000000e+02
    X0000040  C0000185  -1.225000000000e+02
    X0000040  C0000186  -1.225000000000e+02
    X0000040  C0000187  -1.225000000000e+02
    X0000040  C0000188   1.975000000000e+02
    X0000040  C0000189  -8.750000000000e+01
    X0000040  C0000190  -1.225000000000e+02
    X0000040  OBJ        2.400000000000e+02
    MARK      'MARKER'                 'INTEND'
    MARK      'MARKER'                 'INTORG'
    X0000041  C0000062   1.000000000000e+00
    X0000041  C0000063  -1.000000000000e+00
    X0000041  C0000136   4.750000000000e+02
    X0000041  C0000137   1.615000000000e+04
    X0000041  C0000138   1.615000000000e+04
    X0000041  C0000139  -5.250000000000e+01
    X0000041  C0000140  -1.750000000000e+02
    X0000041  C0000141  -1.750000000000e+02
    X0000041  C0000142  -1.750000000000e+02
    X0000041  C0000143   1.615000000000e+04
    X0000041  C0000145   8.075000000000e+03
    X0000041  C0000146   1.130500000000e+04
    X0000041  C0000147  -8.750000000000e+01
    X0000041  C0000148  -1.750000000000e+02
    X0000041  C0000149  -1.750000000000e+02
    X0000041  C0000150  -1.750000000000e+02
    X0000041  C0000151  -5.250000000000e+01
    X0000041  C0000152  -1.750000000000e+02
    X0000041  C0000153  -5.250000000000e+01
    X0000041  C0000154   8.075000000000e+03
    X0000041  C0000155   1.130500000000e+04
    X0000041  C0000156   1.615000000000e+04
    X0000041  C0000157  -8.750000000000e+01
    X0000041  C0000158  -1.750000000000e+02
    X0000041  C0000159  -1.750000000000e+02
    X0000041  C0000160  -1.750000000000e+02
    X0000041  C0000161  -1.750000000000e+02
    X0000041  C0000162  -1.750000000000e+02
    X0000041  C0000163  -1.750000000000e+02
    X0000041  C0000164  -1.750000000000e+02
    X0000041  C0000165  -1.750000000000e+02
    X0000041  C0000166  -1.750000000000e+02
    X0000041  C0000167  -1.750000000000e+02
    X0000041  C0000168  -1.750000000000e+02
    X0000041  C0000169  -1.750000000000e+02
    X0000041  C0000170  -1.750000000000e+02
    X0000041  C0000171  -1.750000000000e+02
    X0000041  C0000172  -1.750000000000e+02
    X0000041  C0000173  -1.750000000000e+02
    X0000041  C0000174  -1.750000000000e+02
    X0000041  C0000175  -1.750000000000e+02
    X0000041  C0000176  -1.750000000000e+02
    X0000041  C0000177  -1.750000000000e+02
    X0000041  C0000178  -1.750000000000e+02
    X0000041  C0000179  -1.750000000000e+02
    X0000041  C0000180  -1.750000000000e+02
    X0000041  C0000181  -1.750000000000e+02
    X0000041  C0000182  -1.750000000000e+02
    X0000041  C0000183  -1.750000000000e+02
    X0000041  C0000184  -1.750000000000e+02
    X0000041  C0000185  -1.750000000000e+02
    X0000041  C0000186  -1.750000000000e+02
    X0000041  C0000187  -1.750000000000e+02
    X0000041  C0000188  -1.750000000000e+02
    X0000041  C0000189  -8.750000000000e+01
    X0000041  C0000190   8.022500000000e+03
    X0000041  C0000191  -8.750000000000e+01
    X0000041  OBJ        2.400000000000e+02
    MARK      'MARKER'                 'INTEND'
    MARK      'MARKER'                 'INTORG'
    X0000042  C0000030   1.000000000000e+00
    X0000042  C0000031  -1.000000000000e+00
    X0000042  C0000032   1.000000000000e+00
    X0000042  C0000033  -1.000000000000e+00
    X0000042  C0000034   1.000000000000e+00
    X0000042  C0000035  -1.000000000000e+00
    X0000042  C0000036  -7.000000000000e+00
    X0000042  C0000037   7.000000000000e+00
    X0000042  C0000038   8.000000000000e+00
    X0000042  C0000039  -8.000000000000e+00
    X0000042  C0000136   6.650000000000e+02
    X0000042  C0000137   1.615000000000e+04
    X0000042  C0000138   6.650000000000e+02
    X0000042  C0000139  -5.250000000000e+01
    X0000042  C0000140  -5.250000000000e+01
    X0000042  C0000141  -1.750000000000e+02
    X0000042  C0000142  -1.750000000000e+02
    X0000042  C0000143  -1.750000000000e+02
    X0000042  C0000144  -1.750000000000e+02
    X0000042  C0000145  -1.750000000000e+02
    X0000042  C0000146  -1.750000000000e+02
    X0000042  C0000147  -1.750000000000e+02
    X0000042  C0000148  -1.750000000000e+02
    X0000042  C0000149  -5.250000000000e+01
    X0000042  C0000150  -5.250000000000e+01
    X0000042  C0000151  -5.250000000000e+01
    X0000042  C0000152  -1.750000000000e+02
    X0000042  C0000153  -1.750000000000e+02
    X0000042  C0000154  -5.250000000000e+01
    X0000042  C0000155  -5.250000000000e+01
    X0000042  C0000156  -5.250000000000e+01
    X0000042  C0000157  -1.750000000000e+02
    X0000042  C0000158  -1.750000000000e+02
    X0000042  C0000159  -1.750000000000e+02
    X0000042  C0000160  -1.750000000000e+02
    X0000042  C0000161  -1.750000000000e+02
    X0000042  C0000162  -1.750000000000e+02
    X0000042  C0000163  -1.750000000000e+02
    X0000042  C0000164  -1.750000000000e+02
    X0000042  C0000165  -1.750000000000e+02
    X0000042  C0000166  -1.750000000000e+02
    X0000042  C0000167  -1.750000000000e+02
    X0000042  C0000168  -1.750000000000e+02
    X0000042  C0000169  -1.750000000000e+02
    X0000042  C0000170  -1.750000000000e+02
    X0000042  C0000171  -1.750000000000e+02
    X0000042  C0000172  -1.750000000000e+02
    X0000042  C0000173  -5.250000000000e+01
    X0000042  C0000174  -5.250000000000e+01
    X0000042  C0000175  -5.250000000000e+01
    X0000042  C0000176  -1.750000000000e+02
    X0000042  C0000177  -1.750000000000e+02
    X0000042  C0000178  -1.750000000000e+02
    X0000042  C0000179  -1.750000000000e+02
    X0000042  C0000180  -1.750000000000e+02
    X0000042  C0000181  -1.750000000000e+02
    X0000042  C0000182  -1.750000000000e+02
    X0000042  C0000183  -1.750000000000e+02
    X0000042  C0000184  -1.750000000000e+02
    X0000042  C0000185  -1.750000000000e+02
    X0000042  C0000186  -1.750000000000e+02
    X0000042  C0000187  -1.750000000000e+02
    X0000042  C0000188  -1.750000000000e+02
    X0000042  C0000189  -1.750000000000e+02
    X0000042  C0000190  -1.750000000000e+02
    X0000042  C0000191  -1.750000000000e+02
    X0000042  OBJ        2.400000000000e+02
    MARK      'MARKER'                 'INTEND'
    MARK      'MARKER'                 'INTORG'
    X0000043  C0000030   1.000000000000e+00
    X0000043  C0000031  -1.000000000000e+00
    X0000043  C0000032   1.000000000000e+00
    X0000043  C0000033  -1.000000000000e+00
    X0000043  C0000034   1.000000000000e+00
    X0000043  C0000035  -1.000000000000e+00
    X0000043  C0000036   1.000000000000e+00
    X0000043  C0000037  -1.000000000000e+00
    X0000043  C0000038  -7.000000000000e+00
    X0000043  C0000039   7.000000000000e+00
    X0000043  C0000040   8.000000000000e+00
    X0000043  C0000041  -8.000000000000e+00
    X0000043  C0000136   4.940000000000e+03
    X0000043  C0000137   1.615000000000e+04
    X0000043  C0000138   1.615000000000e+04
    X0000043  C0000161   1.900000000000e+02
    X0000043  C0000162   1.900000000000e+02
    X0000043  OBJ        2.400000000000e+02
    MARK      'MARKER'                 'INTEND'
    MARK      'MARKER'                 'INTORG'
    X0000044  C0000030   1.000000000000e+00
    X0000044  C0000031  -1.000000000000e+00
    X0000044  C0000032   1.000000000000e+00
    X0000044  C0000033  -1.000000000000e+00
    X0000044  C0000034   1.000000000000e+00
    X0000044  C0000035  -1.000000000000e+00
    X0000044  C0000036   1.000000000000e+00
    X0000044  C0000037  -1.000000000000e+00
    X0000044  C0000038   1.000000000000e+00
    X0000044  C0000039  -1.000000000000e+00
    X0000044  C0000040  -7.000000000000e+00
    X0000044  C0000041   7.000000000000e+00
    X0000044  C0000042   8.000000000000e+00
    X0000044  C0000043  -8.000000000000e+00
    X0000044  C0000136   6.840000000000e+03
    X0000044  C0000137   5.510000000000e+03
    X0000044  C0000138   4.845000000000e+03
    X0000044  C0000142   2.850000000000e+02
    X0000044  C0000143   8.550000000000e+02
    X0000044  C0000144   4.845000000000e+03
    X0000044  C0000145   4.845000000000e+03
    X0000044  C0000148   2.850000000000e+02
    X0000044  C0000149   2.850000000000e+02
    X0000044  C0000150   4.845000000000e+03
    X0000044  C0000151   4.845000000000e+03
    X0000044  C0000152   4.845000000000e+03
    X0000044  C0000153   4.845000000000e+03
    X0000044  OBJ        2.400000000000e+02
    MARK      'MARKER'                 'INTEND'
    MARK      'MARKER'                 'INTORG'
    X0000045  C0000030   1.000000000000e+00
    X0000045  C0000031  -1.000000000000e+00
    X0000045  C0000032   1.000000000000e+00
    X0000045  C0000033  -1.000000000000e+00
    X0000045  C0000034   1.000000000000e+00
    X0000045  C0000035  -1.000000000000e+00
    X0000045  C0000036   1.000000000000e+00
    X0000045  C0000037  -1.000000000000e+00
    X0000045  C0000038   1.000000000000e+00
    X0000045  C0000039  -1.000000000000e+00
    X0000045  C0000040   1.000000000000e+00
    X0000045  C0000041  -1.000000000000e+00
    X0000045  C0000042  -7.000000000000e+00
    X0000045  C0000043   7.000000000000e+00
    X0000045  C0000044   8.000000000000e+00
    X0000045  C0000045  -8.000000000000e+00
    X0000045  C0000136   1.615000000000e+04
    X0000045  C0000137   9.500000000000e+02
    X0000045  C0000138   2.850000000000e+02
    X0000045  C0000141   2.850000000000e+02
    X0000045  C0000142   1.330000000000e+03
    X0000045  C0000143   1.292000000000e+04
    X0000045  C0000144   1.292000000000e+04
    X0000045  C0000145   1.292000000000e+04
    X0000045  C0000149   2.850000000000e+02
    X0000045  OBJ        2.400000000000e+02
    MARK      'MARKER'                 'INTEND'
    MARK      'MARKER'                 'INTORG'
    X0000046  C0000030   1.000000000000e+00
    X0000046  C0000031  -1.000000000000e+00
    X0000046  C0000032   1.000000000000e+00
    X0000046  C0000033  -1.000000000000e+00
    X0000046  C0000034   1.000000000000e+00
    X0000046  C0000035  -1.000000000000e+00
    X0000046  C0000036   1.000000000000e+00
    X0000046  C0000037  -1.000000000000e+00
    X0000046  C0000038   1.000000000000e+00
    X0000046  C0000039  -1.000000000000e+00
    X0000046  C0000040   1.000000000000e+00
    X0000046  C0000041  -1.000000000000e+00
    X0000046  C0000042   1.000000000000e+00
    X0000046  C0000043  -1.000000000000e+00
    X0000046  C0000044  -7.000000000000e+00
    X0000046  C0000045   7.000000000000e+00
    X0000046  C0000046   8.000000000000e+00
    X0000046  C0000047  -8.000000000000e+00
    X0000046  C0000136   1.615000000000e+04
    X0000046  C0000137   1.520000000000e+03
    X0000046  C0000138   9.500000000000e+02
    X0000046  C0000139   2.850000000000e+02
    X0000046  C0000140   2.850000000000e+02
    X0000046  C0000141   2.850000000000e+02
    X0000046  C0000142   5.510000000000e+03
    X0000046  C0000143   4.750000000000e+02
    X0000046  C0000144   4.750000000000e+02
    X0000046  C0000145   4.750000000000e+02
    X0000046  C0000146   4.750000000000e+02
    X0000046  C0000147   4.750000000000e+02
    X0000046  C0000148   4.750000000000e+02
    X0000046  C0000149   5.510000000000e+03
    X0000046  C0000150   4.750000000000e+02
    X0000046  C0000151   1.045000000000e+03
    X0000046  C0000152   4.750000000000e+02
    X0000046  C0000153   1.045000000000e+03
    X0000046  C0000154   2.850000000000e+02
    X0000046  OBJ        2.400000000000e+02
    MARK      'MARKER'                 'INTEND'
    MARK      'MARKER'                 'INTORG'
    X0000047  C0000032   1.000000000000e+00
    X0000047  C0000033  -1.000000000000e+00
    X0000047  C0000034   1.000000000000e+00
    X0000047  C0000035  -1.000000000000e+00
    X0000047  C0000036   1.000000000000e+00
    X0000047  C0000037  -1.000000000000e+00
    X0000047  C0000038   1.000000000000e+00
    X0000047  C0000039  -1.000000000000e+00
    X0000047  C0000040   1.000000000000e+00
    X0000047  C0000041  -1.000000000000e+00
    X0000047  C0000042   1.000000000000e+00
    X0000047  C0000043  -1.000000000000e+00
    X0000047  C0000044   1.000000000000e+00
    X0000047  C0000045  -1.000000000000e+00
    X0000047  C0000046  -7.000000000000e+00
    X0000047  C0000047   7.000000000000e+00
    X0000047  C0000048   8.000000000000e+00
    X0000047  C0000049  -8.000000000000e+00
    X0000047  C0000136   1.615000000000e+04
    X0000047  C0000137   6.840000000000e+03
    X0000047  C0000138   1.520000000000e+03
    X0000047  C0000139   1.520000000000e+03
    X0000047  C0000140   1.520000000000e+03
    X0000047  C0000141   5.510000000000e+03
    X0000047  C0000142   5.510000000000e+03
    X0000047  C0000143   5.510000000000e+03
    X0000047  C0000144   5.510000000000e+03
    X0000047  C0000145   1.520000000000e+03
    X0000047  C0000146   1.520000000000e+03
    X0000047  C0000147   5.510000000000e+03
    X0000047  C0000148   5.510000000000e+03
    X0000047  C0000149   1.520000000000e+03
    X0000047  C0000150   9.500000000000e+02
    X0000047  C0000151   4.750000000000e+02
    X0000047  C0000152   4.750000000000e+02
    X0000047  C0000153   4.750000000000e+02
    X0000047  C0000154   4.750000000000e+02
    X0000047  OBJ        2.400000000000e+02
    MARK      'MARKER'                 'INTEND'
    MARK      'MARKER'                 'INTORG'
    X0000048  C0000034   1.000000000000e+00
    X0000048  C0000035  -1.000000000000e+00
    X0000048  C0000036   1.000000000000e+00
    X0000048  C0000037  -1.000000000000e+00
    X0000048  C0000038   1.000000000000e+00
    X0000048  C0000039  -1.000000000000e+00
    X0000048  C0000040   1.000000000000e+00
    X0000048  C0000041  -1.000000000000e+00
    X0000048  C0000042   1.000000000000e+00
    X0000048  C0000043  -1.000000000000e+00
    X0000048  C0000044   1.000000000000e+00
    X0000048  C0000045  -1.000000000000e+00
    X0000048  C0000046   1.000000000000e+00
    X0000048  C0000047  -1.000000000000e+00
    X0000048  C0000048  -7.000000000000e+00
    X0000048  C0000049   7.000000000000e+00
    X0000048  C0000050   8.000000000000e+00
    X0000048  C0000051  -8.000000000000e+00
    X0000048  C0000136   1.615000000000e+04
    X0000048  C0000137   9.500000000000e+03
    X0000048  C0000138   1.900000000000e+03
    X0000048  C0000139   9.500000000000e+02
    X0000048  C0000140   9.500000000000e+02
    X0000048  C0000141   9.500000000000e+02
    X0000048  C0000142   9.500000000000e+02
    X0000048  C0000143   9.500000000000e+02
    X0000048  C0000144   1.520000000000e+03
    X0000048  C0000145   9.500000000000e+02
    X0000048  C0000146   9.500000000000e+02
    X0000048  C0000147   9.500000000000e+02
    X0000048  C0000148   9.500000000000e+02
    X0000048  C0000149   9.500000000000e+02
    X0000048  C0000150   9.500000000000e+02
    X0000048  C0000151   9.500000000000e+02
    X0000048  C0000152   9.500000000000e+02
    X0000048  C0000153   9.500000000000e+02
    X0000048  C0000154   9.500000000000e+02
    X0000048  C0000175   9.500000000000e+03
    X0000048  C0000176   1.520000000000e+03
    X0000048  C0000177   1.520000000000e+03
    X0000048  C0000178   1.520000000000e+03
    X0000048  C0000179   1.520000000000e+03
    X0000048  C0000180   9.500000000000e+02
    X0000048  C0000181   9.500000000000e+02
    X0000048  C0000182   9.500000000000e+02
    X0000048  C0000183   1.900000000000e+03
    X0000048  C0000184   9.500000000000e+02
    X0000048  C0000185   2.850000000000e+03
    X0000048  C0000186   1.900000000000e+03
    X0000048  C0000187   1.900000000000e+03
    X0000048  C0000188   1.520000000000e+03
    X0000048  C0000189   1.520000000000e+03
    X0000048  C0000190   1.520000000000e+03
    X0000048  C0000191   9.500000000000e+02
    X0000048  OBJ        2.400000000000e+02
    MARK      'MARKER'                 'INTEND'
    MARK      'MARKER'                 'INTORG'
    X0000049  C0000064  -7.000000000000e+00
    X0000049  C0000065   7.000000000000e+00
    X0000049  C0000066   8.000000000000e+00
    X0000049  C0000067  -8.000000000000e+00
    X0000049  C0000136  -3.000000000000e+02
    X0000049  C0000137   1.280000000000e+04
    X0000049  C0000138   1.280000000000e+04
    X0000049  C0000139  -3.000000000000e+02
    X0000049  C0000140   2.320000000000e+03
    X0000049  C0000141   2.320000000000e+03
    X0000049  C0000142  -4.200000000000e+02
    X0000049  C0000143  -4.500000000000e+02
    X0000049  C0000144  -4.500000000000e+02
    X0000049  C0000145  -4.500000000000e+02
    X0000049  C0000146  -4.500000000000e+02
    X0000049  C0000147  -4.500000000000e+02
    X0000049  C0000148  -4.500000000000e+02
    X0000049  C0000149  -4.200000000000e+02
    X0000049  C0000150  -4.200000000000e+02
    X0000049  C0000151  -4.200000000000e+02
    X0000049  C0000152  -4.200000000000e+02
    X0000049  C0000153  -4.200000000000e+02
    X0000049  C0000154  -4.200000000000e+02
    X0000049  C0000155   2.560000000000e+03
    X0000049  C0000159   2.560000000000e+03
    X0000049  C0000160   2.560000000000e+03
    X0000049  C0000161   8.960000000000e+03
    X0000049  C0000165   2.560000000000e+03
    X0000049  C0000168   2.560000000000e+03
    X0000049  C0000169   8.960000000000e+03
    X0000049  C0000170   1.280000000000e+04
    X0000049  C0000171   1.280000000000e+04
    X0000049  C0000172   1.280000000000e+04
    X0000049  C0000173   1.280000000000e+04
    X0000049  C0000174   1.280000000000e+04
    X0000049  C0000175   1.280000000000e+04
    X0000049  C0000176   1.280000000000e+04
    X0000049  C0000179   2.560000000000e+03
    X0000049  C0000180   8.960000000000e+03
    X0000049  C0000181   8.960000000000e+03
    X0000049  C0000190   2.560000000000e+03
    X0000049  OBJ        2.000000000000e+02
    MARK      'MARKER'                 'INTEND'
    MARK      'MARKER'                 'INTORG'
    X0000050  C0000064   1.000000000000e+00
    X0000050  C0000065  -1.000000000000e+00
    X0000050  C0000066  -7.000000000000e+00
    X0000050  C0000067   7.000000000000e+00
    X0000050  C0000068   8.000000000000e+00
    X0000050  C0000069  -8.000000000000e+00
    X0000050  C0000136  -6.000000000000e+01
    X0000050  C0000137   1.280000000000e+04
    X0000050  C0000138  -1.500000000000e+02
    X0000050  C0000139  -3.300000000000e+02
    X0000050  C0000140  -1.800000000000e+02
    X0000050  C0000141   1.015000000000e+04
    X0000050  C0000142  -3.300000000000e+02
    X0000050  C0000143  -3.750000000000e+02
    X0000050  C0000144  -3.750000000000e+02
    X0000050  C0000145  -4.500000000000e+02
    X0000050  C0000146  -4.500000000000e+02
    X0000050  C0000147  -4.500000000000e+02
    X0000050  C0000148  -4.500000000000e+02
    X0000050  C0000149  -3.300000000000e+02
    X0000050  C0000150  -3.750000000000e+02
    X0000050  C0000151  -3.750000000000e+02
    X0000050  C0000152  -3.300000000000e+02
    X0000050  C0000153  -3.750000000000e+02
    X0000050  C0000154  -3.300000000000e+02
    X0000050  C0000159   1.024000000000e+04
    X0000050  C0000160   1.024000000000e+04
    X0000050  C0000161  -9.000000000000e+01
    X0000050  C0000162  -3.750000000000e+02
    X0000050  C0000163  -3.750000000000e+02
    X0000050  C0000164  -4.500000000000e+02
    X0000050  C0000165  -3.300000000000e+02
    X0000050  C0000166  -3.750000000000e+02
    X0000050  C0000167  -3.300000000000e+02
    X0000050  C0000168   1.015000000000e+04
    X0000050  C0000169   1.018000000000e+04
    X0000050  C0000170  -3.300000000000e+02
    X0000050  C0000171  -3.300000000000e+02
    X0000050  C0000172  -3.300000000000e+02
    X0000050  C0000173   1.015000000000e+04
    X0000050  C0000174   1.015000000000e+04
    X0000050  C0000175  -3.300000000000e+02
    X0000050  C0000176  -3.750000000000e+02
    X0000050  C0000177  -3.750000000000e+02
    X0000050  C0000178  -3.300000000000e+02
    X0000050  C0000179   1.015000000000e+04
    X0000050  OBJ        2.000000000000e+02
    MARK      'MARKER'                 'INTEND'
    MARK      'MARKER'                 'INTORG'
    X0000051  C0000070   1.000000000000e+00
    X0000051  C0000071  -1.000000000000e+00
    X0000051  C0000072   1.000000000000e+00
    X0000051  C0000073  -1.000000000000e+00
    X0000051  C0000074   1.000000000000e+00
    X0000051  C0000075  -1.000000000000e+00
    X0000051  C0000076   1.000000000000e+00
    X0000051  C0000077  -1.000000000000e+00
    X0000051  C0000078   1.000000000000e+00
    X0000051  C0000079  -1.000000000000e+00
    X0000051  C0000080   1.000000000000e+00
    X0000051  C0000081  -1.000000000000e+00
    X0000051  C0000082   1.000000000000e+00
    X0000051  C0000083  -1.000000000000e+00
    X0000051  C0000084  -7.000000000000e+00
    X0000051  C0000085   7.000000000000e+00
    X0000051  C0000086   8.000000000000e+00
    X0000051  C0000087  -8.000000000000e+00
    X0000051  C0000136   1.280000000000e+04
    X0000051  C0000137   1.280000000000e+04
    X0000051  C0000138   1.600000000000e+03
    X0000051  C0000142   4.800000000000e+02
    X0000051  C0000143   4.800000000000e+02
    X0000051  OBJ        2.000000000000e+02
    MARK      'MARKER'                 'INTEND'
    MARK      'MARKER'                 'INTORG'
    X0000052  C0000072   1.000000000000e+00
    X0000052  C0000073  -1.000000000000e+00
    X0000052  C0000074   1.000000000000e+00
    X0000052  C0000075  -1.000000000000e+00
    X0000052  C0000076   1.000000000000e+00
    X0000052  C0000077  -1.000000000000e+00
    X0000052  C0000078   1.000000000000e+00
    X0000052  C0000079  -1.000000000000e+00
    X0000052  C0000080   1.000000000000e+00
    X0000052  C0000081  -1.000000000000e+00
    X0000052  C0000082   1.000000000000e+00
    X0000052  C0000083  -1.000000000000e+00
    X0000052  C0000084   1.000000000000e+00
    X0000052  C0000085  -1.000000000000e+00
    X0000052  C0000086  -7.000000000000e+00
    X0000052  C0000087   7.000000000000e+00
    X0000052  C0000088   8.000000000000e+00
    X0000052  C0000089  -8.000000000000e+00
    X0000052  C0000136   1.280000000000e+04
    X0000052  C0000137   1.280000000000e+04
    X0000052  C0000138   1.600000000000e+03
    X0000052  C0000139   1.120000000000e+03
    X0000052  C0000140   1.120000000000e+03
    X0000052  C0000141   6.720000000000e+03
    X0000052  C0000142   8.000000000000e+02
    X0000052  C0000143   8.000000000000e+02
    X0000052  C0000148   8.000000000000e+02
    X0000052  C0000149   8.000000000000e+02
    X0000052  OBJ        2.000000000000e+02
    MARK      'MARKER'                 'INTEND'
    MARK      'MARKER'                 'INTORG'
    X0000053  C0000074   1.000000000000e+00
    X0000053  C0000075  -1.000000000000e+00
    X0000053  C0000076   1.000000000000e+00
    X0000053  C0000077  -1.000000000000e+00
    X0000053  C0000078   1.000000000000e+00
    X0000053  C0000079  -1.000000000000e+00
    X0000053  C0000080   1.000000000000e+00
    X0000053  C0000081  -1.000000000000e+00
    X0000053  C0000082   1.000000000000e+00
    X0000053  C0000083  -1.000000000000e+00
    X0000053  C0000084   1.000000000000e+00
    X0000053  C0000085  -1.000000000000e+00
    X0000053  C0000086   1.000000000000e+00
    X0000053  C0000087  -1.000000000000e+00
    X0000053  C0000088  -7.000000000000e+00
    X0000053  C0000089   7.000000000000e+00
    X0000053  C0000090   8.000000000000e+00
    X0000053  C0000091  -8.000000000000e+00
    X0000053  C0000136   1.280000000000e+04
    X0000053  C0000137   1.280000000000e+04
    X0000053  C0000138   1.600000000000e+03
    X0000053  C0000139   3.200000000000e+02
    X0000053  C0000140   3.200000000000e+02
    X0000053  C0000141   3.040000000000e+03
    X0000053  C0000142   3.200000000000e+02
    X0000053  C0000143   3.200000000000e+02
    X0000053  C0000144   3.200000000000e+02
    X0000053  OBJ        2.000000000000e+02
    MARK      'MARKER'                 'INTEND'
    MARK      'MARKER'                 'INTORG'
    X0000054  C0000076   1.000000000000e+00
    X0000054  C0000077  -1.000000000000e+00
    X0000054  C0000078   1.000000000000e+00
    X0000054  C0000079  -1.000000000000e+00
    X0000054  C0000080   1.000000000000e+00
    X0000054  C0000081  -1.000000000000e+00
    X0000054  C0000082   1.000000000000e+00
    X0000054  C0000083  -1.000000000000e+00
    X0000054  C0000084   1.000000000000e+00
    X0000054  C0000085  -1.000000000000e+00
    X0000054  C0000086   1.000000000000e+00
    X0000054  C0000087  -1.000000000000e+00
    X0000054  C0000088   1.000000000000e+00
    X0000054  C0000089  -1.000000000000e+00
    X0000054  C0000090  -7.000000000000e+00
    X0000054  C0000091   7.000000000000e+00
    X0000054  C0000092   8.000000000000e+00
    X0000054  C0000093  -8.000000000000e+00
    X0000054  C0000136   1.280000000000e+04
    X0000054  C0000137   1.280000000000e+04
    X0000054  C0000138   7.200000000000e+03
    X0000054  C0000139   1.280000000000e+03
    X0000054  C0000140   7.200000000000e+03
    X0000054  C0000141   1.056000000000e+04
    X0000054  C0000142   1.280000000000e+03
    X0000054  C0000143   1.280000000000e+03
    X0000054  C0000144   1.280000000000e+03
    X0000054  C0000145   8.000000000000e+02
    X0000054  C0000146   8.000000000000e+02
    X0000054  C0000147   8.000000000000e+02
    X0000054  C0000148   8.000000000000e+02
    X0000054  C0000149   8.000000000000e+02
    X0000054  C0000150   8.000000000000e+02
    X0000054  C0000151   8.000000000000e+02
    X0000054  C0000152   8.000000000000e+02
    X0000054  C0000153   8.000000000000e+02
    X0000054  C0000154   8.000000000000e+02
    X0000054  OBJ        2.000000000000e+02
    MARK      'MARKER'                 'INTEND'
    MARK      'MARKER'                 'INTORG'
    X0000055  C0000078   1.000000000000e+00
    X0000055  C0000079  -1.000000000000e+00
    X0000055  C0000080   1.000000000000e+00
    X0000055  C0000081  -1.000000000000e+00
    X0000055  C0000082   1.000000000000e+00
    X0000055  C0000083  -1.000000000000e+00
    X0000055  C0000084   1.000000000000e+00
    X0000055  C0000085  -1.000000000000e+00
    X0000055  C0000086   1.000000000000e+00
    X0000055  C0000087  -1.000000000000e+00
    X0000055  C0000088   1.000000000000e+00
    X0000055  C0000089  -1.000000000000e+00
    X0000055  C0000090   1.000000000000e+00
    X0000055  C0000091  -1.000000000000e+00
    X0000055  C0000092  -7.000000000000e+00
    X0000055  C0000093   7.000000000000e+00
    X0000055  C0000094   8.000000000000e+00
    X0000055  C0000095  -8.000000000000e+00
    X0000055  C0000136   1.280000000000e+04
    X0000055  C0000137   7.200000000000e+03
    X0000055  C0000138   8.000000000000e+02
    X0000055  C0000139   3.200000000000e+02
    X0000055  C0000140   3.200000000000e+02
    X0000055  C0000141   2.560000000000e+03
    X0000055  C0000142   3.200000000000e+02
    X0000055  C0000143   3.200000000000e+02
    X0000055  C0000145   3.200000000000e+02
    X0000055  C0000146   3.200000000000e+02
    X0000055  C0000149   3.200000000000e+02
    X0000055  C0000150   2.560000000000e+03
    X0000055  C0000151   2.560000000000e+03
    X0000055  C0000152   2.560000000000e+03
    X0000055  C0000153   2.560000000000e+03
    X0000055  C0000154   2.560000000000e+03
    X0000055  OBJ        2.000000000000e+02
    MARK      'MARKER'                 'INTEND'
    MARK      'MARKER'                 'INTORG'
    X0000056  C0000080   1.000000000000e+00
    X0000056  C0000081  -1.000000000000e+00
    X0000056  C0000082   1.000000000000e+00
    X0000056  C0000083  -1.000000000000e+00
    X0000056  C0000084   1.000000000000e+00
    X0000056  C0000085  -1.000000000000e+00
    X0000056  C0000086   1.000000000000e+00
    X0000056  C0000087  -1.000000000000e+00
    X0000056  C0000088   1.000000000000e+00
    X0000056  C0000089  -1.000000000000e+00
    X0000056  C0000090   1.000000000000e+00
    X0000056  C0000091  -1.000000000000e+00
    X0000056  C0000092   1.000000000000e+00
    X0000056  C0000093  -1.000000000000e+00
    X0000056  C0000094  -7.000000000000e+00
    X0000056  C0000095   7.000000000000e+00
    X0000056  C0000096   8.000000000000e+00
    X0000056  C0000097  -8.000000000000e+00
    X0000056  C0000136   1.280000000000e+04
    X0000056  C0000137   1.056000000000e+04
    X0000056  C0000138   1.280000000000e+03
    X0000056  C0000143   1.600000000000e+03
    X0000056  C0000145   1.280000000000e+04
    X0000056  C0000146   1.280000000000e+03
    X0000056  C0000159   1.280000000000e+04
    X0000056  C0000160   1.280000000000e+04
    X0000056  C0000161   1.024000000000e+04
    X0000056  C0000162   6.400000000000e+03
    X0000056  C0000163   6.400000000000e+03
    X0000056  C0000177   1.600000000000e+03
    X0000056  C0000182   1.280000000000e+04
    X0000056  C0000183   1.280000000000e+04
    X0000056  C0000184   1.024000000000e+04
    X0000056  C0000185   6.880000000000e+03
    X0000056  C0000186   7.200000000000e+03
    X0000056  C0000187   8.000000000000e+02
    X0000056  C0000191   1.056000000000e+04
    X0000056  OBJ        2.000000000000e+02
    MARK      'MARKER'                 'INTEND'
    MARK      'MARKER'                 'INTORG'
    X0000057  C0000082   1.000000000000e+00
    X0000057  C0000083  -1.000000000000e+00
    X0000057  C0000084   1.000000000000e+00
    X0000057  C0000085  -1.000000000000e+00
    X0000057  C0000086   1.000000000000e+00
    X0000057  C0000087  -1.000000000000e+00
    X0000057  C0000088   1.000000000000e+00
    X0000057  C0000089  -1.000000000000e+00
    X0000057  C0000090   1.000000000000e+00
    X0000057  C0000091  -1.000000000000e+00
    X0000057  C0000092   1.000000000000e+00
    X0000057  C0000093  -1.000000000000e+00
    X0000057  C0000094   1.000000000000e+00
    X0000057  C0000095  -1.000000000000e+00
    X0000057  C0000096  -7.000000000000e+00
    X0000057  C0000097   7.000000000000e+00
    X0000057  C0000136   1.280000000000e+04
    X0000057  C0000137   1.600000000000e+03
    X0000057  C0000143   8.000000000000e+02
    X0000057  C0000144  -1.500000000000e+02
    X0000057  C0000145   1.600000000000e+03
    X0000057  C0000146   1.600000000000e+03
    X0000057  C0000147   1.600000000000e+03
    X0000057  C0000148  -1.500000000000e+02
    X0000057  C0000149   1.600000000000e+03
    X0000057  C0000150   1.280000000000e+04
    X0000057  C0000159   6.400000000000e+03
    X0000057  C0000164   6.400000000000e+03
    X0000057  C0000168   1.600000000000e+03
    X0000057  C0000169   1.600000000000e+03
    X0000057  C0000170   1.600000000000e+03
    X0000057  C0000171   1.600000000000e+03
    X0000057  C0000172   1.600000000000e+03
    X0000057  C0000173  -1.500000000000e+02
    X0000057  C0000174   8.000000000000e+02
    X0000057  C0000187   8.000000000000e+02
    X0000057  C0000188   1.600000000000e+03
    X0000057  C0000189   1.600000000000e+03
    X0000057  C0000190   1.600000000000e+03
    X0000057  C0000191   8.000000000000e+02
    X0000057  OBJ        2.000000000000e+02
    MARK      'MARKER'                 'INTEND'
    MARK      'MARKER'                 'INTORG'
    X0000058  C0000084   1.000000000000e+00
    X0000058  C0000085  -1.000000000000e+00
    X0000058  C0000086   1.000000000000e+00
    X0000058  C0000087  -1.000000000000e+00
    X0000058  C0000088   1.000000000000e+00
    X0000058  C0000089  -1.000000000000e+00
    X0000058  C0000090   1.000000000000e+00
    X0000058  C0000091  -1.000000000000e+00
    X0000058  C0000092   1.000000000000e+00
    X0000058  C0000093  -1.000000000000e+00
    X0000058  C0000094   1.000000000000e+00
    X0000058  C0000095  -1.000000000000e+00
    X0000058  C0000096   1.000000000000e+00
    X0000058  C0000097  -1.000000000000e+00
    X0000058  C0000136   1.280000000000e+04
    X0000058  C0000137   1.120000000000e+03
    X0000058  C0000138   8.000000000000e+02
    X0000058  C0000139  -9.000000000000e+01
    X0000058  C0000140  -9.000000000000e+01
    X0000058  C0000141  -9.000000000000e+01
    X0000058  C0000142   6.400000000000e+03
    X0000058  C0000143   6.310000000000e+03
    X0000058  C0000144  -1.500000000000e+02
    X0000058  C0000145  -9.000000000000e+01
    X0000058  C0000146  -1.500000000000e+02
    X0000058  C0000147  -1.500000000000e+02
    X0000058  C0000148  -1.500000000000e+02
    X0000058  C0000149  -1.500000000000e+02
    X0000058  C0000150  -1.500000000000e+02
    X0000058  C0000151  -9.000000000000e+01
    X0000058  C0000152  -9.000000000000e+01
    X0000058  C0000153  -9.000000000000e+01
    X0000058  C0000154   6.400000000000e+03
    X0000058  C0000155   6.310000000000e+03
    X0000058  C0000156  -9.000000000000e+01
    X0000058  C0000157  -9.000000000000e+01
    X0000058  C0000158  -9.000000000000e+01
    X0000058  C0000159   6.400000000000e+03
    X0000058  C0000160   6.310000000000e+03
    X0000058  C0000161  -9.000000000000e+01
    X0000058  C0000162  -9.000000000000e+01
    X0000058  C0000163  -9.000000000000e+01
    X0000058  C0000164   6.400000000000e+03
    X0000058  C0000165   6.310000000000e+03
    X0000058  C0000166  -9.000000000000e+01
    X0000058  C0000167  -9.000000000000e+01
    X0000058  C0000168  -1.500000000000e+02
    X0000058  C0000169  -1.500000000000e+02
    X0000058  C0000170   6.500000000000e+02
    X0000058  C0000171   7.100000000000e+02
    X0000058  C0000172   7.100000000000e+02
    X0000058  C0000173  -9.000000000000e+01
    X0000058  C0000174  -9.000000000000e+01
    X0000058  C0000175  -9.000000000000e+01
    X0000058  C0000176  -9.000000000000e+01
    X0000058  C0000177   7.100000000000e+02
    X0000058  C0000178   7.100000000000e+02
    X0000058  C0000179  -9.000000000000e+01
    X0000058  C0000180  -9.000000000000e+01
    X0000058  C0000181  -9.000000000000e+01
    X0000058  C0000182  -9.000000000000e+01
    X0000058  C0000183  -9.000000000000e+01
    X0000058  C0000184   6.400000000000e+03
    X0000058  C0000185   6.310000000000e+03
    X0000058  C0000186  -9.000000000000e+01
    X0000058  C0000187  -9.000000000000e+01
    X0000058  C0000188  -9.000000000000e+01
    X0000058  C0000189  -9.000000000000e+01
    X0000058  C0000190  -9.000000000000e+01
    X0000058  C0000191  -9.000000000000e+01
    X0000058  OBJ        2.000000000000e+02
    MARK      'MARKER'                 'INTEND'
    MARK      'MARKER'                 'INTORG'
    X0000059  C0000086   1.000000000000e+00
    X0000059  C0000087  -1.000000000000e+00
    X0000059  C0000088   1.000000000000e+00
    X0000059  C0000089  -1.000000000000e+00
    X0000059  C0000090   1.000000000000e+00
    X0000059  C0000091  -1.000000000000e+00
    X0000059  C0000092   1.000000000000e+00
    X0000059  C0000093  -1.000000000000e+00
    X0000059  C0000094   1.000000000000e+00
    X0000059  C0000095  -1.000000000000e+00
    X0000059  C0000096   1.000000000000e+00
    X0000059  C0000097  -1.000000000000e+00
    X0000059  C0000136   1.280000000000e+04
    X0000059  C0000137  -3.000000000000e+02
    X0000059  C0000138  -3.000000000000e+02
    X0000059  C0000140  -3.000000000000e+02
    X0000059  C0000141  -3.000000000000e+02
    X0000059  C0000142   2.560000000000e+03
    X0000059  C0000143  -3.000000000000e+02
    X0000059  C0000144  -3.000000000000e+02
    X0000059  C0000145  -3.000000000000e+02
    X0000059  C0000146  -3.000000000000e+02
    X0000059  C0000147  -3.000000000000e+02
    X0000059  C0000148  -3.000000000000e+02
    X0000059  C0000149  -3.000000000000e+02
    X0000059  C0000150   1.280000000000e+04
    X0000059  C0000151   1.280000000000e+04
    X0000059  C0000152  -3.000000000000e+02
    X0000059  C0000153  -3.000000000000e+02
    X0000059  C0000154  -3.000000000000e+02
    X0000059  C0000156  -9.000000000000e+01
    X0000059  C0000157  -3.000000000000e+02
    X0000059  C0000158  -3.000000000000e+02
    X0000059  C0000159  -3.000000000000e+02
    X0000059  C0000160  -3.000000000000e+02
    X0000059  C0000161  -3.000000000000e+02
    X0000059  C0000162  -3.000000000000e+02
    X0000059  C0000163  -3.000000000000e+02
    X0000059  C0000164  -3.000000000000e+02
    X0000059  C0000165  -3.000000000000e+02
    X0000059  C0000166  -3.000000000000e+02
    X0000059  C0000167  -3.000000000000e+02
    X0000059  C0000168  -3.000000000000e+02
    X0000059  C0000169  -3.000000000000e+02
    X0000059  C0000170  -3.000000000000e+02
    X0000059  C0000171   1.600000000000e+03
    X0000059  C0000172   8.000000000000e+01
    X0000059  C0000173  -3.000000000000e+02
    X0000059  C0000174  -3.000000000000e+02
    X0000059  C0000175  -3.000000000000e+02
    X0000059  C0000176  -3.000000000000e+02
    X0000059  C0000177  -3.000000000000e+02
    X0000059  C0000178  -3.000000000000e+02
    X0000059  C0000179  -3.000000000000e+02
    X0000059  C0000180  -3.000000000000e+02
    X0000059  C0000181  -3.000000000000e+02
    X0000059  C0000182  -3.000000000000e+02
    X0000059  OBJ        2.000000000000e+02
    MARK      'MARKER'                 'INTEND'
    MARK      'MARKER'                 'INTORG'
    X0000060  C0000088   1.000000000000e+00
    X0000060  C0000089  -1.000000000000e+00
    X0000060  C0000090   1.000000000000e+00
    X0000060  C0000091  -1.000000000000e+00
    X0000060  C0000092   1.000000000000e+00
    X0000060  C0000093  -1.000000000000e+00
    X0000060  C0000094   1.000000000000e+00
    X0000060  C0000095  -1.000000000000e+00
    X0000060  C0000096   1.000000000000e+00
    X0000060  C0000097  -1.000000000000e+00
    X0000060  C0000136   3.840000000000e+03
    X0000060  C0000137   1.280000000000e+04
    X0000060  C0000139   1.280000000000e+04
    X0000060  C0000141  -3.000000000000e+02
    X0000060  C0000142  -3.000000000000e+02
    X0000060  C0000143  -3.000000000000e+02
    X0000060  C0000144  -3.000000000000e+02
    X0000060  C0000145  -3.000000000000e+02
    X0000060  C0000146  -3.000000000000e+02
    X0000060  C0000147  -3.000000000000e+02
    X0000060  C0000148  -3.000000000000e+02
    X0000060  C0000149  -3.000000000000e+02
    X0000060  C0000150  -3.000000000000e+02
    X0000060  C0000151  -3.000000000000e+02
    X0000060  C0000152  -3.000000000000e+02
    X0000060  C0000153  -3.000000000000e+02
    X0000060  C0000154  -3.000000000000e+02
    X0000060  C0000155  -3.000000000000e+02
    X0000060  C0000156  -3.000000000000e+02
    X0000060  C0000157  -3.000000000000e+02
    X0000060  C0000158  -3.000000000000e+02
    X0000060  C0000159  -3.000000000000e+02
    X0000060  C0000160  -3.000000000000e+02
    X0000060  C0000161  -2.100000000000e+02
    X0000060  C0000164  -1.500000000000e+02
    X0000060  C0000186  -3.000000000000e+02
    X0000060  C0000187  -3.000000000000e+02
    X0000060  C0000188  -3.000000000000e+02
    X0000060  C0000189  -3.000000000000e+02
    X0000060  C0000190  -3.000000000000e+02
    X0000060  C0000191  -3.000000000000e+02
    X0000060  OBJ        2.000000000000e+02
    MARK      'MARKER'                 'INTEND'
    MARK      'MARKER'                 'INTORG'
    X0000061  C0000064   1.000000000000e+00
    X0000061  C0000065  -1.000000000000e+00
    X0000061  C0000066   1.000000000000e+00
    X0000061  C0000067  -1.000000000000e+00
    X0000061  C0000068  -7.000000000000e+00
    X0000061  C0000069   7.000000000000e+00
    X0000061  C0000070   8.000000000000e+00
    X0000061  C0000071  -8.000000000000e+00
    X0000061  C0000136   7.400000000000e+02
    X0000061  C0000137   1.280000000000e+04
    X0000061  C0000138   6.340000000000e+03
    X0000061  C0000139  -3.300000000000e+02
    X0000061  C0000140  -3.300000000000e+02
    X0000061  C0000141  -3.300000000000e+02
    X0000061  C0000142  -3.300000000000e+02
    X0000061  C0000143  -3.300000000000e+02
    X0000061  C0000144  -3.300000000000e+02
    X0000061  C0000145  -3.300000000000e+02
    X0000061  C0000146  -3.750000000000e+02
    X0000061  C0000147  -3.750000000000e+02
    X0000061  C0000148  -3.750000000000e+02
    X0000061  C0000149   6.250000000000e+03
    X0000061  C0000150  -3.300000000000e+02
    X0000061  C0000151  -3.300000000000e+02
    X0000061  C0000152  -3.300000000000e+02
    X0000061  C0000153  -3.300000000000e+02
    X0000061  C0000154   6.250000000000e+03
    X0000061  C0000161  -3.300000000000e+02
    X0000061  C0000162  -3.300000000000e+02
    X0000061  C0000163  -3.300000000000e+02
    X0000061  C0000164  -3.300000000000e+02
    X0000061  C0000165  -3.300000000000e+02
    X0000061  C0000166  -3.750000000000e+02
    X0000061  C0000167  -3.750000000000e+02
    X0000061  C0000168  -3.750000000000e+02
    X0000061  C0000169  -3.750000000000e+02
    X0000061  C0000170  -3.750000000000e+02
    X0000061  C0000171  -3.750000000000e+02
    X0000061  C0000172  -3.750000000000e+02
    X0000061  C0000173   6.250000000000e+03
    X0000061  C0000174  -3.300000000000e+02
    X0000061  C0000175  -3.300000000000e+02
    X0000061  C0000176  -3.300000000000e+02
    X0000061  C0000177  -3.300000000000e+02
    X0000061  C0000178  -3.300000000000e+02
    X0000061  C0000179  -3.300000000000e+02
    X0000061  OBJ        2.000000000000e+02
    MARK      'MARKER'                 'INTEND'
    MARK      'MARKER'                 'INTORG'
    X0000062  C0000090   1.000000000000e+00
    X0000062  C0000091  -1.000000000000e+00
    X0000062  C0000092   1.000000000000e+00
    X0000062  C0000093  -1.000000000000e+00
    X0000062  C0000094   1.000000000000e+00
    X0000062  C0000095  -1.000000000000e+00
    X0000062  C0000096   1.000000000000e+00
    X0000062  C0000097  -1.000000000000e+00
    X0000062  C0000136   4.960000000000e+03
    X0000062  C0000137   1.280000000000e+04
    X0000062  C0000138  -3.000000000000e+02
    X0000062  C0000139   1.280000000000e+04
    X0000062  C0000140  -2.100000000000e+02
    X0000062  C0000141  -3.000000000000e+02
    X0000062  C0000142  -3.000000000000e+02
    X0000062  C0000143  -3.000000000000e+02
    X0000062  C0000144  -3.000000000000e+02
    X0000062  C0000145  -3.000000000000e+02
    X0000062  C0000146  -3.000000000000e+02
    X0000062  C0000147  -3.000000000000e+02
    X0000062  C0000148  -3.000000000000e+02
    X0000062  C0000149  -3.000000000000e+02
    X0000062  C0000150  -3.000000000000e+02
    X0000062  C0000151  -3.000000000000e+02
    X0000062  C0000152  -3.000000000000e+02
    X0000062  C0000153  -3.000000000000e+02
    X0000062  C0000154  -3.000000000000e+02
    X0000062  C0000155  -3.000000000000e+02
    X0000062  C0000156  -3.000000000000e+02
    X0000062  C0000157  -3.000000000000e+02
    X0000062  C0000158  -3.000000000000e+02
    X0000062  C0000159  -3.000000000000e+02
    X0000062  C0000160  -3.000000000000e+02
    X0000062  C0000161  -2.100000000000e+02
    X0000062  C0000164  -1.500000000000e+02
    X0000062  C0000175  -6.000000000000e+01
    X0000062  C0000177  -2.100000000000e+02
    X0000062  C0000178  -3.000000000000e+02
    X0000062  C0000179  -3.000000000000e+02
    X0000062  C0000180  -3.000000000000e+02
    X0000062  C0000181  -3.000000000000e+02
    X0000062  C0000182  -3.000000000000e+02
    X0000062  C0000183  -3.000000000000e+02
    X0000062  C0000184  -3.000000000000e+02
    X0000062  C0000185  -3.000000000000e+02
    X0000062  C0000186  -3.000000000000e+02
    X0000062  C0000187  -3.000000000000e+02
    X0000062  C0000188  -3.000000000000e+02
    X0000062  C0000189  -3.000000000000e+02
    X0000062  C0000190  -3.000000000000e+02
    X0000062  OBJ        2.000000000000e+02
    MARK      'MARKER'                 'INTEND'
    MARK      'MARKER'                 'INTORG'
    X0000063  C0000092   1.000000000000e+00
    X0000063  C0000093  -1.000000000000e+00
    X0000063  C0000094   1.000000000000e+00
    X0000063  C0000095  -1.000000000000e+00
    X0000063  C0000096   1.000000000000e+00
    X0000063  C0000097  -1.000000000000e+00
    X0000063  C0000136   3.200000000000e+02
    X0000063  C0000137   1.280000000000e+04
    X0000063  C0000138   7.200000000000e+03
    X0000063  C0000139  -3.000000000000e+02
    X0000063  C0000140  -3.750000000000e+02
    X0000063  C0000141  -3.750000000000e+02
    X0000063  C0000142   8.000000000000e+01
    X0000063  C0000143   7.200000000000e+03
    X0000063  C0000144  -3.000000000000e+02
    X0000063  C0000145  -3.750000000000e+02
    X0000063  C0000146  -3.750000000000e+02
    X0000063  C0000147   2.320000000000e+03
    X0000063  C0000148  -4.500000000000e+02
    X0000063  C0000149  -4.200000000000e+02
    X0000063  C0000150  -4.200000000000e+02
    X0000063  C0000151  -4.200000000000e+02
    X0000063  C0000152  -4.200000000000e+02
    X0000063  C0000153  -4.200000000000e+02
    X0000063  C0000154   2.320000000000e+03
    X0000063  C0000155  -3.750000000000e+02
    X0000063  C0000156  -3.750000000000e+02
    X0000063  C0000157  -3.750000000000e+02
    X0000063  C0000158   2.320000000000e+03
    X0000063  C0000159  -2.400000000000e+02
    X0000063  C0000160  -3.000000000000e+02
    X0000063  C0000161  -3.000000000000e+02
    X0000063  C0000162  -3.000000000000e+02
    X0000063  C0000163  -3.750000000000e+02
    X0000063  C0000164  -3.000000000000e+02
    X0000063  C0000165   2.560000000000e+03
    X0000063  C0000166  -3.000000000000e+02
    X0000063  C0000167  -3.000000000000e+02
    X0000063  C0000168  -3.750000000000e+02
    X0000063  C0000169  -3.750000000000e+02
    X0000063  C0000170  -3.750000000000e+02
    X0000063  C0000171  -3.750000000000e+02
    X0000063  C0000172  -4.200000000000e+02
    X0000063  C0000173   2.320000000000e+03
    X0000063  C0000174  -3.750000000000e+02
    X0000063  C0000175  -3.750000000000e+02
    X0000063  C0000176  -3.750000000000e+02
    X0000063  C0000177  -3.750000000000e+02
    X0000063  C0000178  -4.200000000000e+02
    X0000063  C0000179  -4.200000000000e+02
    X0000063  C0000180  -4.200000000000e+02
    X0000063  C0000181  -4.200000000000e+02
    X0000063  C0000182  -4.200000000000e+02
    X0000063  C0000183  -4.200000000000e+02
    X0000063  OBJ        2.000000000000e+02
    MARK      'MARKER'                 'INTEND'
    MARK      'MARKER'                 'INTORG'
    X0000064  C0000094   1.000000000000e+00
    X0000064  C0000095  -1.000000000000e+00
    X0000064  C0000096   1.000000000000e+00
    X0000064  C0000097  -1.000000000000e+00
    X0000064  C0000136  -1.500000000000e+02
    X0000064  C0000137   1.280000000000e+04
    X0000064  C0000138   1.280000000000e+04
    X0000064  C0000139  -3.750000000000e+02
    X0000064  C0000140  -3.750000000000e+02
    X0000064  C0000141  -4.050000000000e+02
    X0000064  C0000142  -3.750000000000e+02
    X0000064  C0000143   6.250000000000e+03
    X0000064  C0000144   6.250000000000e+03
    X0000064  C0000145  -3.750000000000e+02
    X0000064  C0000146   6.175000000000e+03
    X0000064  C0000147  -3.750000000000e+02
    X0000064  C0000148  -3.750000000000e+02
    X0000064  C0000149  -4.050000000000e+02
    X0000064  C0000150  -3.750000000000e+02
    X0000064  C0000151  -3.750000000000e+02
    X0000064  C0000152   3.555000000000e+03
    X0000064  C0000153  -3.750000000000e+02
    X0000064  C0000154  -4.050000000000e+02
    X0000064  C0000155  -4.050000000000e+02
    X0000064  C0000156  -4.050000000000e+02
    X0000064  C0000157  -4.050000000000e+02
    X0000064  C0000158  -4.050000000000e+02
    X0000064  C0000161  -2.850000000000e+02
    X0000064  C0000163   3.840000000000e+03
    X0000064  C0000164   6.400000000000e+03
    X0000064  C0000174   6.400000000000e+03
    X0000064  C0000175  -2.250000000000e+02
    X0000064  C0000176  -2.250000000000e+02
    X0000064  C0000177  -4.050000000000e+02
    X0000064  C0000178  -4.050000000000e+02
    X0000064  C0000179  -4.050000000000e+02
    X0000064  C0000180  -4.050000000000e+02
    X0000064  C0000181  -4.050000000000e+02
    X0000064  C0000182  -4.050000000000e+02
    X0000064  C0000183  -4.050000000000e+02
    X0000064  C0000184  -4.050000000000e+02
    X0000064  C0000185  -4.050000000000e+02
    X0000064  C0000186  -4.050000000000e+02
    X0000064  C0000187  -4.050000000000e+02
    X0000064  C0000188  -2.850000000000e+02
    X0000064  C0000189  -3.750000000000e+02
    X0000064  C0000190  -4.050000000000e+02
    X0000064  C0000191  -3.000000000000e+02
    X0000064  OBJ        2.000000000000e+02
    MARK      'MARKER'                 'INTEND'
    MARK      'MARKER'                 'INTORG'
    X0000065  C0000096   1.000000000000e+00
    X0000065  C0000097  -1.000000000000e+00
    X0000065  C0000136  -1.500000000000e+02
    X0000065  C0000137   1.280000000000e+04
    X0000065  C0000138   1.280000000000e+04
    X0000065  C0000139  -3.450000000000e+02
    X0000065  C0000140  -4.500000000000e+02
    X0000065  C0000141  -4.500000000000e+02
    X0000065  C0000142  -4.500000000000e+02
    X0000065  C0000143   1.280000000000e+04
    X0000065  C0000144  -3.000000000000e+02
    X0000065  C0000145   6.250000000000e+03
    X0000065  C0000146   8.870000000000e+03
    X0000065  C0000147  -3.750000000000e+02
    X0000065  C0000148  -4.500000000000e+02
    X0000065  C0000149  -4.500000000000e+02
    X0000065  C0000150  -4.500000000000e+02
    X0000065  C0000151  -3.450000000000e+02
    X0000065  C0000152  -4.500000000000e+02
    X0000065  C0000153  -3.450000000000e+02
    X0000065  C0000154   6.250000000000e+03
    X0000065  C0000155   8.870000000000e+03
    X0000065  C0000156   1.280000000000e+04
    X0000065  C0000157  -3.750000000000e+02
    X0000065  C0000158  -4.500000000000e+02
    X0000065  C0000159  -4.500000000000e+02
    X0000065  C0000160  -4.500000000000e+02
    X0000065  C0000161  -3.150000000000e+02
    X0000065  C0000163  -4.500000000000e+02
    X0000065  C0000164  -4.500000000000e+02
    X0000065  C0000165  -4.500000000000e+02
    X0000065  C0000166  -4.500000000000e+02
    X0000065  C0000167  -4.500000000000e+02
    X0000065  C0000168  -4.500000000000e+02
    X0000065  C0000169  -4.500000000000e+02
    X0000065  C0000170  -4.500000000000e+02
    X0000065  C0000171  -4.500000000000e+02
    X0000065  C0000172  -4.500000000000e+02
    X0000065  C0000173  -4.500000000000e+02
    X0000065  C0000174  -4.500000000000e+02
    X0000065  C0000175  -4.500000000000e+02
    X0000065  C0000176  -4.500000000000e+02
    X0000065  C0000177  -4.500000000000e+02
    X0000065  C0000178  -4.500000000000e+02
    X0000065  C0000179  -4.500000000000e+02
    X0000065  C0000180  -4.500000000000e+02
    X0000065  C0000181  -4.500000000000e+02
    X0000065  C0000190   6.400000000000e+03
    X0000065  OBJ        2.000000000000e+02
    MARK      'MARKER'                 'INTEND'
    MARK      'MARKER'                 'INTORG'
    X0000066  C0000064   1.000000000000e+00
    X0000066  C0000065  -1.000000000000e+00
    X0000066  C0000066   1.000000000000e+00
    X0000066  C0000067  -1.000000000000e+00
    X0000066  C0000068   1.000000000000e+00
    X0000066  C0000069  -1.000000000000e+00
    X0000066  C0000070  -7.000000000000e+00
    X0000066  C0000071   7.000000000000e+00
    X0000066  C0000072   8.000000000000e+00
    X0000066  C0000073  -8.000000000000e+00
    X0000066  C0000136  -9.000000000000e+01
    X0000066  C0000137   1.280000000000e+04
    X0000066  C0000138  -9.000000000000e+01
    X0000066  C0000139  -3.450000000000e+02
    X0000066  C0000140  -3.450000000000e+02
    X0000066  C0000141  -4.500000000000e+02
    X0000066  C0000142  -4.500000000000e+02
    X0000066  C0000143  -4.500000000000e+02
    X0000066  C0000144  -4.500000000000e+02
    X0000066  C0000145  -4.500000000000e+02
    X0000066  C0000146  -4.500000000000e+02
    X0000066  C0000147  -4.500000000000e+02
    X0000066  C0000148  -4.500000000000e+02
    X0000066  C0000149  -3.450000000000e+02
    X0000066  C0000150  -3.450000000000e+02
    X0000066  C0000151  -3.450000000000e+02
    X0000066  C0000152  -4.500000000000e+02
    X0000066  C0000153  -4.500000000000e+02
    X0000066  C0000154  -3.450000000000e+02
    X0000066  C0000161  -4.500000000000e+02
    X0000066  C0000162  -4.500000000000e+02
    X0000066  C0000163  -4.500000000000e+02
    X0000066  C0000164  -4.500000000000e+02
    X0000066  C0000165  -4.500000000000e+02
    X0000066  C0000166  -4.500000000000e+02
    X0000066  C0000167  -4.500000000000e+02
    X0000066  C0000168  -4.500000000000e+02
    X0000066  C0000169  -4.500000000000e+02
    X0000066  C0000170  -4.500000000000e+02
    X0000066  C0000171  -4.500000000000e+02
    X0000066  C0000172  -4.500000000000e+02
    X0000066  C0000173  -3.450000000000e+02
    X0000066  C0000174  -3.450000000000e+02
    X0000066  C0000175  -3.450000000000e+02
    X0000066  C0000176  -4.500000000000e+02
    X0000066  C0000177  -4.500000000000e+02
    X0000066  C0000178  -4.500000000000e+02
    X0000066  C0000179  -4.500000000000e+02
    X0000066  OBJ        2.000000000000e+02
    MARK      'MARKER'                 'INTEND'
    MARK      'MARKER'                 'INTORG'
    X0000067  C0000064   1.000000000000e+00
    X0000067  C0000065  -1.000000000000e+00
    X0000067  C0000066   1.000000000000e+00
    X0000067  C0000067  -1.000000000000e+00
    X0000067  C0000068   1.000000000000e+00
    X0000067  C0000069  -1.000000000000e+00
    X0000067  C0000070   1.000000000000e+00
    X0000067  C0000071  -1.000000000000e+00
    X0000067  C0000072  -7.000000000000e+00
    X0000067  C0000073   7.000000000000e+00
    X0000067  C0000074   8.000000000000e+00
    X0000067  C0000075  -8.000000000000e+00
    X0000067  C0000136   3.360000000000e+03
    X0000067  C0000137   1.280000000000e+04
    X0000067  C0000138   1.280000000000e+04
    X0000067  C0000139  -3.000000000000e+02
    X0000067  C0000140  -3.000000000000e+02
    X0000067  C0000141  -3.000000000000e+02
    X0000067  C0000142  -3.000000000000e+02
    X0000067  C0000143  -3.000000000000e+02
    X0000067  C0000144  -3.000000000000e+02
    X0000067  C0000145  -3.000000000000e+02
    X0000067  C0000146  -3.000000000000e+02
    X0000067  C0000147  -3.000000000000e+02
    X0000067  C0000148  -3.000000000000e+02
    X0000067  C0000149  -3.000000000000e+02
    X0000067  C0000150  -3.000000000000e+02
    X0000067  C0000151  -3.000000000000e+02
    X0000067  C0000152  -3.000000000000e+02
    X0000067  C0000153  -3.000000000000e+02
    X0000067  C0000154  -3.000000000000e+02
    X0000067  C0000155  -3.000000000000e+02
    X0000067  C0000156  -3.000000000000e+02
    X0000067  C0000157  -3.000000000000e+02
    X0000067  C0000158  -3.000000000000e+02
    X0000067  C0000161  -2.400000000000e+02
    X0000067  C0000162  -2.400000000000e+02
    X0000067  C0000163  -3.000000000000e+02
    X0000067  C0000164  -3.000000000000e+02
    X0000067  C0000165  -3.000000000000e+02
    X0000067  C0000166  -3.000000000000e+02
    X0000067  C0000167  -3.000000000000e+02
    X0000067  C0000168  -3.000000000000e+02
    X0000067  C0000169  -3.000000000000e+02
    X0000067  C0000170  -3.000000000000e+02
    X0000067  C0000171  -3.000000000000e+02
    X0000067  C0000172  -3.000000000000e+02
    X0000067  C0000173  -3.000000000000e+02
    X0000067  C0000174  -3.000000000000e+02
    X0000067  C0000175  -3.000000000000e+02
    X0000067  C0000176  -3.000000000000e+02
    X0000067  C0000177  -3.000000000000e+02
    X0000067  C0000178  -3.000000000000e+02
    X0000067  C0000179  -3.000000000000e+02
    X0000067  OBJ        2.000000000000e+02
    MARK      'MARKER'                 'INTEND'
    MARK      'MARKER'                 'INTORG'
    X0000068  C0000064   1.000000000000e+00
    X0000068  C0000065  -1.000000000000e+00
    X0000068  C0000066   1.000000000000e+00
    X0000068  C0000067  -1.000000000000e+00
    X0000068  C0000068   1.000000000000e+00
    X0000068  C0000069  -1.000000000000e+00
    X0000068  C0000070   1.000000000000e+00
    X0000068  C0000071  -1.000000000000e+00
    X0000068  C0000072   1.000000000000e+00
    X0000068  C0000073  -1.000000000000e+00
    X0000068  C0000074  -7.000000000000e+00
    X0000068  C0000075   7.000000000000e+00
    X0000068  C0000076   8.000000000000e+00
    X0000068  C0000077  -8.000000000000e+00
    X0000068  C0000136   4.960000000000e+03
    X0000068  C0000137   3.840000000000e+03
    X0000068  C0000138   3.630000000000e+03
    X0000068  C0000139  -3.000000000000e+02
    X0000068  C0000140  -3.000000000000e+02
    X0000068  C0000141  -3.000000000000e+02
    X0000068  C0000142  -2.100000000000e+02
    X0000068  C0000143   2.700000000000e+02
    X0000068  C0000144   3.630000000000e+03
    X0000068  C0000145   3.630000000000e+03
    X0000068  C0000146  -3.000000000000e+02
    X0000068  C0000147  -3.000000000000e+02
    X0000068  C0000148  -2.100000000000e+02
    X0000068  C0000149  -2.100000000000e+02
    X0000068  C0000150   3.630000000000e+03
    X0000068  C0000151   3.630000000000e+03
    X0000068  C0000152   3.630000000000e+03
    X0000068  C0000153   3.630000000000e+03
    X0000068  C0000154  -3.000000000000e+02
    X0000068  C0000155  -3.000000000000e+02
    X0000068  C0000156  -3.000000000000e+02
    X0000068  C0000157  -3.000000000000e+02
    X0000068  C0000158  -2.100000000000e+02
    X0000068  C0000159  -3.000000000000e+02
    X0000068  C0000160  -3.000000000000e+02
    X0000068  C0000161  -3.000000000000e+02
    X0000068  C0000162  -3.000000000000e+02
    X0000068  C0000163  -3.000000000000e+02
    X0000068  C0000164  -3.000000000000e+02
    X0000068  C0000165  -3.000000000000e+02
    X0000068  C0000166  -3.000000000000e+02
    X0000068  C0000167  -2.100000000000e+02
    X0000068  C0000168  -2.100000000000e+02
    X0000068  C0000169   3.630000000000e+03
    X0000068  C0000170   3.630000000000e+03
    X0000068  C0000171   3.630000000000e+03
    X0000068  C0000172   3.630000000000e+03
    X0000068  C0000173   3.630000000000e+03
    X0000068  C0000174  -3.000000000000e+02
    X0000068  C0000175  -3.000000000000e+02
    X0000068  C0000176  -2.100000000000e+02
    X0000068  C0000177  -2.100000000000e+02
    X0000068  C0000178   3.630000000000e+03
    X0000068  C0000179   3.630000000000e+03
    X0000068  C0000180   3.630000000000e+03
    X0000068  C0000181  -3.000000000000e+02
    X0000068  C0000182  -3.000000000000e+02
    X0000068  C0000183  -3.000000000000e+02
    X0000068  C0000184  -3.000000000000e+02
    X0000068  C0000185  -3.000000000000e+02
    X0000068  C0000186  -3.000000000000e+02
    X0000068  C0000187  -3.000000000000e+02
    X0000068  C0000188  -3.000000000000e+02
    X0000068  C0000189  -3.000000000000e+02
    X0000068  C0000190  -3.000000000000e+02
    X0000068  C0000191  -3.000000000000e+02
    X0000068  OBJ        2.000000000000e+02
    MARK      'MARKER'                 'INTEND'
    MARK      'MARKER'                 'INTORG'
    X0000069  C0000064   1.000000000000e+00
    X0000069  C0000065  -1.000000000000e+00
    X0000069  C0000066   1.000000000000e+00
    X0000069  C0000067  -1.000000000000e+00
    X0000069  C0000068   1.000000000000e+00
    X0000069  C0000069  -1.000000000000e+00
    X0000069  C0000070   1.000000000000e+00
    X0000069  C0000071  -1.000000000000e+00
    X0000069  C0000072   1.000000000000e+00
    X0000069  C0000073  -1.000000000000e+00
    X0000069  C0000074   1.000000000000e+00
    X0000069  C0000075  -1.000000000000e+00
    X0000069  C0000076  -7.000000000000e+00
    X0000069  C0000077   7.000000000000e+00
    X0000069  C0000078   8.000000000000e+00
    X0000069  C0000079  -8.000000000000e+00
    X0000069  C0000136   1.280000000000e+04
    X0000069  C0000138  -2.100000000000e+02
    X0000069  C0000139  -3.000000000000e+02
    X0000069  C0000140  -3.000000000000e+02
    X0000069  C0000141  -2.100000000000e+02
    X0000069  C0000142   4.200000000000e+02
    X0000069  C0000143   1.018000000000e+04
    X0000069  C0000144   1.018000000000e+04
    X0000069  C0000145   1.018000000000e+04
    X0000069  C0000146  -3.000000000000e+02
    X0000069  C0000147  -3.000000000000e+02
    X0000069  C0000148  -3.000000000000e+02
    X0000069  C0000149  -2.100000000000e+02
    X0000069  C0000150  -3.000000000000e+02
    X0000069  C0000151  -3.000000000000e+02
    X0000069  C0000152  -3.000000000000e+02
    X0000069  C0000153  -3.000000000000e+02
    X0000069  C0000154  -3.000000000000e+02
    X0000069  C0000155  -3.000000000000e+02
    X0000069  C0000156  -3.000000000000e+02
    X0000069  C0000157  -3.000000000000e+02
    X0000069  C0000158  -6.000000000000e+01
    X0000069  C0000159  -3.000000000000e+02
    X0000069  C0000160  -3.000000000000e+02
    X0000069  C0000161  -3.000000000000e+02
    X0000069  C0000162  -3.000000000000e+02
    X0000069  C0000163  -3.000000000000e+02
    X0000069  C0000164  -3.000000000000e+02
    X0000069  C0000165  -3.000000000000e+02
    X0000069  C0000166  -2.100000000000e+02
    X0000069  C0000167   3.780000000000e+03
    X0000069  C0000168   1.018000000000e+04
    X0000069  C0000169   1.018000000000e+04
    X0000069  C0000170   1.018000000000e+04
    X0000069  C0000171   1.018000000000e+04
    X0000069  C0000172  -3.000000000000e+02
    X0000069  C0000173  -3.000000000000e+02
    X0000069  C0000174  -3.000000000000e+02
    X0000069  C0000175  -2.100000000000e+02
    X0000069  C0000176  -6.000000000000e+01
    X0000069  C0000177   3.780000000000e+03
    X0000069  C0000178  -3.000000000000e+02
    X0000069  C0000179  -3.000000000000e+02
    X0000069  C0000180  -2.100000000000e+02
    X0000069  C0000181  -3.000000000000e+02
    X0000069  C0000182  -3.000000000000e+02
    X0000069  C0000183  -3.000000000000e+02
    X0000069  C0000184  -2.100000000000e+02
    X0000069  C0000185  -3.000000000000e+02
    X0000069  C0000186  -2.100000000000e+02
    X0000069  C0000187  -6.000000000000e+01
    X0000069  C0000188  -3.000000000000e+02
    X0000069  C0000189  -2.100000000000e+02
    X0000069  C0000190   3.780000000000e+03
    X0000069  C0000191  -3.000000000000e+02
    X0000069  OBJ        2.000000000000e+02
    MARK      'MARKER'                 'INTEND'
    MARK      'MARKER'                 'INTORG'
    X0000070  C0000064   1.000000000000e+00
    X0000070  C0000065  -1.000000000000e+00
    X0000070  C0000066   1.000000000000e+00
    X0000070  C0000067  -1.000000000000e+00
    X0000070  C0000068   1.000000000000e+00
    X0000070  C0000069  -1.000000000000e+00
    X0000070  C0000070   1.000000000000e+00
    X0000070  C0000071  -1.000000000000e+00
    X0000070  C0000072   1.000000000000e+00
    X0000070  C0000073  -1.000000000000e+00
    X0000070  C0000074   1.000000000000e+00
    X0000070  C0000075  -1.000000000000e+00
    X0000070  C0000076   1.000000000000e+00
    X0000070  C0000077  -1.000000000000e+00
    X0000070  C0000078  -7.000000000000e+00
    X0000070  C0000079   7.000000000000e+00
    X0000070  C0000080   8.000000000000e+00
    X0000070  C0000081  -8.000000000000e+00
    X0000070  C0000136   1.280000000000e+04
    X0000070  C0000137   4.800000000000e+02
    X0000070  C0000139  -2.100000000000e+02
    X0000070  C0000140  -2.100000000000e+02
    X0000070  C0000141  -2.100000000000e+02
    X0000070  C0000142   3.840000000000e+03
    X0000070  C0000143  -1.500000000000e+02
    X0000070  C0000144  -1.500000000000e+02
    X0000070  C0000145  -1.500000000000e+02
    X0000070  C0000146  -1.500000000000e+02
    X0000070  C0000147  -1.500000000000e+02
    X0000070  C0000148  -1.500000000000e+02
    X0000070  C0000149   3.840000000000e+03
    X0000070  C0000150  -1.500000000000e+02
    X0000070  C0000151   3.300000000000e+02
    X0000070  C0000152  -1.500000000000e+02
    X0000070  C0000153   3.300000000000e+02
    X0000070  C0000154  -2.100000000000e+02
    X0000070  C0000155  -2.100000000000e+02
    X0000070  C0000156  -2.100000000000e+02
    X0000070  C0000157  -2.100000000000e+02
    X0000070  C0000158  -2.100000000000e+02
    X0000070  C0000159  -2.100000000000e+02
    X0000070  C0000160  -2.100000000000e+02
    X0000070  C0000161  -2.100000000000e+02
    X0000070  C0000162  -2.100000000000e+02
    X0000070  C0000163  -2.100000000000e+02
    X0000070  C0000164  -2.100000000000e+02
    X0000070  C0000165   3.840000000000e+03
    X0000070  C0000166  -1.500000000000e+02
    X0000070  C0000167  -1.500000000000e+02
    X0000070  C0000168   3.840000000000e+03
    X0000070  C0000169   6.400000000000e+03
    X0000070  C0000170   1.280000000000e+04
    X0000070  C0000171   3.690000000000e+03
    X0000070  C0000172  -1.500000000000e+02
    X0000070  C0000173  -1.500000000000e+02
    X0000070  C0000174  -1.500000000000e+02
    X0000070  C0000175   3.840000000000e+03
    X0000070  C0000176   6.400000000000e+03
    X0000070  C0000177  -1.500000000000e+02
    X0000070  C0000178  -1.500000000000e+02
    X0000070  C0000179  -1.500000000000e+02
    X0000070  C0000180  -1.500000000000e+02
    X0000070  C0000181  -1.500000000000e+02
    X0000070  C0000182  -1.500000000000e+02
    X0000070  C0000183  -2.100000000000e+02
    X0000070  C0000184  -2.100000000000e+02
    X0000070  C0000185  -2.100000000000e+02
    X0000070  C0000186  -2.100000000000e+02
    X0000070  C0000187   3.840000000000e+03
    X0000070  C0000188  -1.500000000000e+02
    X0000070  C0000189  -1.500000000000e+02
    X0000070  C0000190  -1.500000000000e+02
    X0000070  C0000191  -1.500000000000e+02
    X0000070  OBJ        2.000000000000e+02
    MARK      'MARKER'                 'INTEND'
    MARK      'MARKER'                 'INTORG'
    X0000071  C0000066   1.000000000000e+00
    X0000071  C0000067  -1.000000000000e+00
    X0000071  C0000068   1.000000000000e+00
    X0000071  C0000069  -1.000000000000e+00
    X0000071  C0000070   1.000000000000e+00
    X0000071  C0000071  -1.000000000000e+00
    X0000071  C0000072   1.000000000000e+00
    X0000071  C0000073  -1.000000000000e+00
    X0000071  C0000074   1.000000000000e+00
    X0000071  C0000075  -1.000000000000e+00
    X0000071  C0000076   1.000000000000e+00
    X0000071  C0000077  -1.000000000000e+00
    X0000071  C0000078   1.000000000000e+00
    X0000071  C0000079  -1.000000000000e+00
    X0000071  C0000080  -7.000000000000e+00
    X0000071  C0000081   7.000000000000e+00
    X0000071  C0000082   8.000000000000e+00
    X0000071  C0000083  -8.000000000000e+00
    X0000071  C0000136   1.280000000000e+04
    X0000071  C0000137   4.960000000000e+03
    X0000071  C0000138   4.800000000000e+02
    X0000071  C0000139   4.800000000000e+02
    X0000071  C0000140   4.800000000000e+02
    X0000071  C0000141   3.840000000000e+03
    X0000071  C0000142   3.840000000000e+03
    X0000071  C0000143   3.840000000000e+03
    X0000071  C0000144   3.840000000000e+03
    X0000071  C0000145   4.800000000000e+02
    X0000071  C0000146   4.800000000000e+02
    X0000071  C0000147   3.840000000000e+03
    X0000071  C0000148   3.840000000000e+03
    X0000071  C0000149   4.800000000000e+02
    X0000071  C0000151  -1.500000000000e+02
    X0000071  C0000152  -1.500000000000e+02
    X0000071  C0000153  -1.500000000000e+02
    X0000071  C0000154  -1.500000000000e+02
    X0000071  C0000155  -1.500000000000e+02
    X0000071  C0000160  -1.500000000000e+02
    X0000071  C0000161  -1.500000000000e+02
    X0000071  C0000162  -1.500000000000e+02
    X0000071  C0000163  -1.500000000000e+02
    X0000071  C0000164  -1.500000000000e+02
    X0000071  C0000165  -1.500000000000e+02
    X0000071  C0000166  -1.500000000000e+02
    X0000071  C0000182  -1.500000000000e+02
    X0000071  C0000183  -1.500000000000e+02
    X0000071  C0000184  -1.500000000000e+02
    X0000071  C0000185  -1.500000000000e+02
    X0000071  OBJ        2.000000000000e+02
    MARK      'MARKER'                 'INTEND'
    MARK      'MARKER'                 'INTORG'
    X0000072  C0000068   1.000000000000e+00
    X0000072  C0000069  -1.000000000000e+00
    X0000072  C0000070   1.000000000000e+00
    X0000072  C0000071  -1.000000000000e+00
    X0000072  C0000072   1.000000000000e+00
    X0000072  C0000073  -1.000000000000e+00
    X0000072  C0000074   1.000000000000e+00
    X0000072  C0000075  -1.000000000000e+00
    X0000072  C0000076   1.000000000000e+00
    X0000072  C0000077  -1.000000000000e+00
    X0000072  C0000078   1.000000000000e+00
    X0000072  C0000079  -1.000000000000e+00
    X0000072  C0000080   1.000000000000e+00
    X0000072  C0000081  -1.000000000000e+00
    X0000072  C0000082  -7.000000000000e+00
    X0000072  C0000083   7.000000000000e+00
    X0000072  C0000084   8.000000000000e+00
    X0000072  C0000085  -8.000000000000e+00
    X0000072  C0000136   1.280000000000e+04
    X0000072  C0000137   7.200000000000e+03
    X0000072  C0000138   8.000000000000e+02
    X0000072  C0000144   4.800000000000e+02
    X0000072  C0000161   8.000000000000e+02
    X0000072  C0000173   4.800000000000e+02
    X0000072  C0000174   4.800000000000e+02
    X0000072  C0000175   7.200000000000e+03
    X0000072  C0000176   4.800000000000e+02
    X0000072  C0000177   4.800000000000e+02
    X0000072  C0000178   4.800000000000e+02
    X0000072  C0000179   4.800000000000e+02
    X0000072  OBJ        2.000000000000e+02
    MARK      'MARKER'                 'INTEND'
    MARK      'MARKER'                 'INTORG'
    X0000073  C0000098  -5.000000000000e+00
    X0000073  C0000099   5.000000000000e+00
    X0000073  C0000100   6.000000000000e+00
    X0000073  C0000101  -6.000000000000e+00
    X0000073  C0000136  -7.500000000000e+02
    X0000073  C0000137   1.050000000000e+04
    X0000073  C0000138   1.050000000000e+04
    X0000073  C0000139  -7.500000000000e+02
    X0000073  C0000140   1.500000000000e+03
    X0000073  C0000141   1.500000000000e+03
    X0000073  C0000142  -8.500000000000e+02
    X0000073  C0000143  -8.750000000000e+02
    X0000073  C0000144  -8.750000000000e+02
    X0000073  C0000145  -8.750000000000e+02
    X0000073  C0000146  -8.750000000000e+02
    X0000073  C0000147  -8.750000000000e+02
    X0000073  C0000148  -8.750000000000e+02
    X0000073  C0000149  -8.500000000000e+02
    X0000073  C0000150  -8.500000000000e+02
    X0000073  C0000151  -8.500000000000e+02
    X0000073  C0000152  -8.500000000000e+02
    X0000073  C0000153  -8.500000000000e+02
    X0000073  C0000154  -8.500000000000e+02
    X0000073  C0000155   2.100000000000e+03
    X0000073  C0000159   2.100000000000e+03
    X0000073  C0000160   2.100000000000e+03
    X0000073  C0000161   7.350000000000e+03
    X0000073  C0000165   2.100000000000e+03
    X0000073  C0000168   2.100000000000e+03
    X0000073  C0000169   7.350000000000e+03
    X0000073  C0000170   1.050000000000e+04
    X0000073  C0000171   1.050000000000e+04
    X0000073  C0000172   1.050000000000e+04
    X0000073  C0000173   1.050000000000e+04
    X0000073  C0000174   1.050000000000e+04
    X0000073  C0000175   1.050000000000e+04
    X0000073  C0000176   1.050000000000e+04
    X0000073  C0000179   2.100000000000e+03
    X0000073  C0000180   7.350000000000e+03
    X0000073  C0000181   7.350000000000e+03
    X0000073  C0000190   2.100000000000e+03
    X0000073  OBJ        1.800000000000e+02
    MARK      'MARKER'                 'INTEND'
    MARK      'MARKER'                 'INTORG'
    X0000074  C0000098   1.000000000000e+00
    X0000074  C0000099  -1.000000000000e+00
    X0000074  C0000100  -5.000000000000e+00
    X0000074  C0000101   5.000000000000e+00
    X0000074  C0000102   6.000000000000e+00
    X0000074  C0000103  -6.000000000000e+00
    X0000074  C0000136  -5.500000000000e+02
    X0000074  C0000137   1.050000000000e+04
    X0000074  C0000138  -6.250000000000e+02
    X0000074  C0000139  -7.750000000000e+02
    X0000074  C0000140  -6.500000000000e+02
    X0000074  C0000141   8.225000000000e+03
    X0000074  C0000142  -7.750000000000e+02
    X0000074  C0000143  -8.125000000000e+02
    X0000074  C0000144  -8.125000000000e+02
    X0000074  C0000145  -8.750000000000e+02
    X0000074  C0000146  -8.750000000000e+02
    X0000074  C0000147  -8.750000000000e+02
    X0000074  C0000148  -8.750000000000e+02
    X0000074  C0000149  -7.750000000000e+02
    X0000074  C0000150  -8.125000000000e+02
    X0000074  C0000151  -8.125000000000e+02
    X0000074  C0000152  -7.750000000000e+02
    X0000074  C0000153  -8.125000000000e+02
    X0000074  C0000154  -7.750000000000e+02
    X0000074  C0000159   8.400000000000e+03
    X0000074  C0000160   8.400000000000e+03
    X0000074  C0000168   8.400000000000e+03
    X0000074  C0000169   8.400000000000e+03
    X0000074  C0000173   8.400000000000e+03
    X0000074  C0000174   8.400000000000e+03
    X0000074  C0000179   8.400000000000e+03
    X0000074  OBJ        1.800000000000e+02
    MARK      'MARKER'                 'INTEND'
    MARK      'MARKER'                 'INTORG'
    X0000075  C0000108   1.000000000000e+00
    X0000075  C0000109  -1.000000000000e+00
    X0000075  C0000110   1.000000000000e+00
    X0000075  C0000111  -1.000000000000e+00
    X0000075  C0000112   1.000000000000e+00
    X0000075  C0000113  -1.000000000000e+00
    X0000075  C0000114   1.000000000000e+00
    X0000075  C0000115  -1.000000000000e+00
    X0000075  C0000116   1.000000000000e+00
    X0000075  C0000117  -1.000000000000e+00
    X0000075  C0000118  -5.000000000000e+00
    X0000075  C0000119   5.000000000000e+00
    X0000075  C0000120   6.000000000000e+00
    X0000075  C0000121  -6.000000000000e+00
    X0000075  C0000136   1.050000000000e+04
    X0000075  C0000137   1.050000000000e+04
    X0000075  C0000139  -5.000000000000e+02
    X0000075  C0000140  -5.000000000000e+02
    X0000075  C0000141  -5.000000000000e+02
    X0000075  C0000142  -3.500000000000e+02
    X0000075  C0000143  -3.500000000000e+02
    X0000075  C0000144  -5.000000000000e+02
    X0000075  C0000145  -5.000000000000e+02
    X0000075  C0000146  -5.000000000000e+02
    X0000075  C0000147  -5.000000000000e+02
    X0000075  C0000148  -5.000000000000e+02
    X0000075  C0000149  -5.000000000000e+02
    X0000075  C0000150  -5.000000000000e+02
    X0000075  C0000151  -5.000000000000e+02
    X0000075  C0000152  -5.000000000000e+02
    X0000075  C0000153  -5.000000000000e+02
    X0000075  C0000154  -5.000000000000e+02
    X0000075  C0000155  -5.000000000000e+02
    X0000075  C0000156  -5.000000000000e+02
    X0000075  C0000157  -5.000000000000e+02
    X0000075  C0000158  -5.000000000000e+02
    X0000075  C0000159  -5.000000000000e+02
    X0000075  C0000160  -5.000000000000e+02
    X0000075  C0000161  -5.000000000000e+02
    X0000075  C0000163  -3.500000000000e+02
    X0000075  C0000164  -5.000000000000e+02
    X0000075  C0000165  -5.000000000000e+02
    X0000075  C0000166  -5.000000000000e+02
    X0000075  C0000167  -5.000000000000e+02
    X0000075  C0000168  -5.000000000000e+02
    X0000075  C0000169  -5.000000000000e+02
    X0000075  C0000170  -3.500000000000e+02
    X0000075  C0000171  -3.500000000000e+02
    X0000075  C0000172   2.800000000000e+03
    X0000075  C0000173   3.050000000000e+03
    X0000075  C0000174   3.050000000000e+03
    X0000075  C0000175  -5.000000000000e+02
    X0000075  C0000176  -5.000000000000e+02
    X0000075  C0000177  -5.000000000000e+02
    X0000075  C0000178  -5.000000000000e+02
    X0000075  C0000179  -5.000000000000e+02
    X0000075  C0000180  -5.000000000000e+02
    X0000075  C0000182  -1.000000000000e+02
    X0000075  C0000183  -5.000000000000e+02
    X0000075  C0000184  -5.000000000000e+02
    X0000075  C0000185  -5.000000000000e+02
    X0000075  C0000186  -5.000000000000e+02
    X0000075  C0000187  -5.000000000000e+02
    X0000075  C0000188  -5.000000000000e+02
    X0000075  C0000189  -3.500000000000e+02
    X0000075  C0000190  -3.500000000000e+02
    X0000075  C0000191  -5.000000000000e+02
    X0000075  OBJ        1.800000000000e+02
    MARK      'MARKER'                 'INTEND'
    MARK      'MARKER'                 'INTORG'
    X0000076  C0000110   1.000000000000e+00
    X0000076  C0000111  -1.000000000000e+00
    X0000076  C0000112   1.000000000000e+00
    X0000076  C0000113  -1.000000000000e+00
    X0000076  C0000114   1.000000000000e+00
    X0000076  C0000115  -1.000000000000e+00
    X0000076  C0000116   1.000000000000e+00
    X0000076  C0000117  -1.000000000000e+00
    X0000076  C0000118   1.000000000000e+00
    X0000076  C0000119  -1.000000000000e+00
    X0000076  C0000120  -5.000000000000e+00
    X0000076  C0000121   5.000000000000e+00
    X0000076  C0000122   6.000000000000e+00
    X0000076  C0000123  -6.000000000000e+00
    X0000076  C0000136   1.050000000000e+04
    X0000076  C0000137   1.050000000000e+04
    X0000076  C0000139  -1.500000000000e+02
    X0000076  C0000140  -1.500000000000e+02
    X0000076  C0000141   5.100000000000e+03
    X0000076  C0000142  -2.500000000000e+02
    X0000076  C0000143  -2.500000000000e+02
    X0000076  C0000144  -5.000000000000e+02
    X0000076  C0000145  -5.000000000000e+02
    X0000076  C0000146  -5.000000000000e+02
    X0000076  C0000147  -5.000000000000e+02
    X0000076  C0000148  -2.500000000000e+02
    X0000076  C0000149  -2.500000000000e+02
    X0000076  C0000150  -5.000000000000e+02
    X0000076  C0000151  -5.000000000000e+02
    X0000076  C0000152  -5.000000000000e+02
    X0000076  C0000153  -5.000000000000e+02
    X0000076  C0000154  -5.000000000000e+02
    X0000076  C0000155  -5.000000000000e+02
    X0000076  C0000156  -2.500000000000e+02
    X0000076  C0000157   5.100000000000e+03
    X0000076  C0000158  -2.500000000000e+02
    X0000076  C0000159  -2.500000000000e+02
    X0000076  C0000160  -5.000000000000e+02
    X0000076  C0000161  -5.000000000000e+02
    X0000076  C0000162  -5.000000000000e+02
    X0000076  C0000163  -5.000000000000e+02
    X0000076  C0000164  -5.000000000000e+02
    X0000076  C0000165  -5.000000000000e+02
    X0000076  C0000166  -5.000000000000e+02
    X0000076  C0000167  -5.000000000000e+02
    X0000076  C0000168  -2.500000000000e+02
    X0000076  C0000169   5.100000000000e+03
    X0000076  C0000170   7.200000000000e+03
    X0000076  C0000171   7.200000000000e+03
    X0000076  C0000172  -2.500000000000e+02
    X0000076  C0000173  -2.500000000000e+02
    X0000076  C0000174  -5.000000000000e+02
    X0000076  C0000175  -5.000000000000e+02
    X0000076  C0000177   5.250000000000e+03
    X0000076  C0000178  -1.500000000000e+02
    X0000076  C0000179  -2.500000000000e+02
    X0000076  C0000180  -2.500000000000e+02
    X0000076  C0000181  -5.000000000000e+02
    X0000076  C0000182  -5.000000000000e+02
    X0000076  C0000183  -5.000000000000e+02
    X0000076  C0000184  -5.000000000000e+02
    X0000076  C0000185  -5.000000000000e+02
    X0000076  C0000186  -5.000000000000e+02
    X0000076  C0000187  -5.000000000000e+02
    X0000076  C0000188  -5.000000000000e+02
    X0000076  C0000189  -5.000000000000e+02
    X0000076  C0000190  -5.000000000000e+02
    X0000076  C0000191  -5.000000000000e+02
    X0000076  OBJ        1.800000000000e+02
    MARK      'MARKER'                 'INTEND'
    MARK      'MARKER'                 'INTORG'
    X0000077  C0000112   1.000000000000e+00
    X0000077  C0000113  -1.000000000000e+00
    X0000077  C0000114   1.000000000000e+00
    X0000077  C0000115  -1.000000000000e+00
    X0000077  C0000116   1.000000000000e+00
    X0000077  C0000117  -1.000000000000e+00
    X0000077  C0000118   1.000000000000e+00
    X0000077  C0000119  -1.000000000000e+00
    X0000077  C0000120   1.000000000000e+00
    X0000077  C0000121  -1.000000000000e+00
    X0000077  C0000122  -5.000000000000e+00
    X0000077  C0000123   5.000000000000e+00
    X0000077  C0000124   6.000000000000e+00
    X0000077  C0000125  -6.000000000000e+00
    X0000077  C0000136   1.050000000000e+04
    X0000077  C0000137   1.050000000000e+04
    X0000077  C0000139  -4.000000000000e+02
    X0000077  C0000140  -4.000000000000e+02
    X0000077  C0000141   1.850000000000e+03
    X0000077  C0000142  -4.000000000000e+02
    X0000077  C0000143  -4.000000000000e+02
    X0000077  C0000144  -4.000000000000e+02
    X0000077  C0000145  -5.000000000000e+02
    X0000077  C0000146  -5.000000000000e+02
    X0000077  C0000147  -5.000000000000e+02
    X0000077  C0000148  -5.000000000000e+02
    X0000077  C0000149  -5.000000000000e+02
    X0000077  C0000150  -5.000000000000e+02
    X0000077  C0000151  -5.000000000000e+02
    X0000077  C0000152  -5.000000000000e+02
    X0000077  C0000153  -5.000000000000e+02
    X0000077  C0000154  -5.000000000000e+02
    X0000077  C0000155  -5.000000000000e+02
    X0000077  C0000156  -4.000000000000e+02
    X0000077  C0000157   1.700000000000e+03
    X0000077  C0000158  -4.000000000000e+02
    X0000077  C0000159  -4.000000000000e+02
    X0000077  C0000160  -4.000000000000e+02
    X0000077  C0000161  -5.000000000000e+02
    X0000077  C0000162  -5.000000000000e+02
    X0000077  C0000163  -5.000000000000e+02
    X0000077  C0000164  -5.000000000000e+02
    X0000077  C0000165  -5.000000000000e+02
    X0000077  C0000166  -5.000000000000e+02
    X0000077  C0000167  -5.000000000000e+02
    X0000077  C0000168  -5.000000000000e+02
    X0000077  C0000169  -5.000000000000e+02
    X0000077  C0000170  -4.000000000000e+02
    X0000077  C0000171   1.700000000000e+03
    X0000077  C0000172  -4.000000000000e+02
    X0000077  C0000173  -4.000000000000e+02
    X0000077  C0000174  -4.000000000000e+02
    X0000077  C0000175  -5.000000000000e+02
    X0000077  C0000176  -5.000000000000e+02
    X0000077  C0000177  -5.000000000000e+02
    X0000077  C0000178  -5.000000000000e+02
    X0000077  C0000179  -5.000000000000e+02
    X0000077  C0000180  -5.000000000000e+02
    X0000077  C0000182   2.100000000000e+03
    X0000077  C0000183   1.050000000000e+04
    X0000077  C0000185  -4.000000000000e+02
    X0000077  C0000186  -4.000000000000e+02
    X0000077  C0000187  -4.000000000000e+02
    X0000077  C0000188  -4.000000000000e+02
    X0000077  C0000189  -5.000000000000e+02
    X0000077  C0000190  -5.000000000000e+02
    X0000077  C0000191  -5.000000000000e+02
    X0000077  OBJ        1.800000000000e+02
    MARK      'MARKER'                 'INTEND'
    MARK      'MARKER'                 'INTORG'
    X0000078  C0000114   1.000000000000e+00
    X0000078  C0000115  -1.000000000000e+00
    X0000078  C0000116   1.000000000000e+00
    X0000078  C0000117  -1.000000000000e+00
    X0000078  C0000118   1.000000000000e+00
    X0000078  C0000119  -1.000000000000e+00
    X0000078  C0000120   1.000000000000e+00
    X0000078  C0000121  -1.000000000000e+00
    X0000078  C0000122   1.000000000000e+00
    X0000078  C0000123  -1.000000000000e+00
    X0000078  C0000124  -5.000000000000e+00
    X0000078  C0000125   5.000000000000e+00
    X0000078  C0000126   6.000000000000e+00
    X0000078  C0000127  -6.000000000000e+00
    X0000078  C0000136   1.050000000000e+04
    X0000078  C0000137   1.050000000000e+04
    X0000078  C0000138   5.250000000000e+03
    X0000078  C0000139  -1.000000000000e+02
    X0000078  C0000140   5.250000000000e+03
    X0000078  C0000141   8.400000000000e+03
    X0000078  C0000142  -1.000000000000e+02
    X0000078  C0000143  -1.000000000000e+02
    X0000078  C0000144  -1.000000000000e+02
    X0000078  C0000145  -2.500000000000e+02
    X0000078  C0000146  -2.500000000000e+02
    X0000078  C0000147  -2.500000000000e+02
    X0000078  C0000148  -2.500000000000e+02
    X0000078  C0000149  -2.500000000000e+02
    X0000078  C0000150  -2.500000000000e+02
    X0000078  C0000151  -2.500000000000e+02
    X0000078  C0000152  -2.500000000000e+02
    X0000078  C0000153  -2.500000000000e+02
    X0000078  C0000154  -2.500000000000e+02
    X0000078  C0000155  -2.500000000000e+02
    X0000078  C0000156  -1.000000000000e+02
    X0000078  C0000157   8.300000000000e+03
    X0000078  C0000158  -1.000000000000e+02
    X0000078  C0000159  -1.000000000000e+02
    X0000078  C0000160  -2.500000000000e+02
    X0000078  C0000161  -2.500000000000e+02
    X0000078  C0000162  -2.500000000000e+02
    X0000078  C0000163  -2.500000000000e+02
    X0000078  C0000164  -2.500000000000e+02
    X0000078  C0000165  -2.500000000000e+02
    X0000078  C0000166  -2.500000000000e+02
    X0000078  C0000167  -2.500000000000e+02
    X0000078  C0000168  -2.500000000000e+02
    X0000078  C0000169  -2.500000000000e+02
    X0000078  C0000170  -2.500000000000e+02
    X0000078  C0000171  -2.500000000000e+02
    X0000078  C0000172  -2.500000000000e+02
    X0000078  C0000173  -2.500000000000e+02
    X0000078  C0000174  -2.500000000000e+02
    X0000078  C0000175  -2.500000000000e+02
    X0000078  C0000176  -2.500000000000e+02
    X0000078  C0000177  -2.500000000000e+02
    X0000078  C0000178  -2.500000000000e+02
    X0000078  C0000179  -2.500000000000e+02
    X0000078  C0000180  -2.500000000000e+02
    X0000078  C0000181  -2.500000000000e+02
    X0000078  C0000182  -2.500000000000e+02
    X0000078  C0000183  -2.500000000000e+02
    X0000078  C0000184  -2.500000000000e+02
    X0000078  C0000185  -2.500000000000e+02
    X0000078  C0000186  -2.500000000000e+02
    X0000078  C0000187  -2.500000000000e+02
    X0000078  C0000188  -2.500000000000e+02
    X0000078  C0000189  -2.500000000000e+02
    X0000078  C0000190  -2.500000000000e+02
    X0000078  C0000191  -2.500000000000e+02
    X0000078  OBJ        1.800000000000e+02
    MARK      'MARKER'                 'INTEND'
    MARK      'MARKER'                 'INTORG'
    X0000079  C0000116   1.000000000000e+00
    X0000079  C0000117  -1.000000000000e+00
    X0000079  C0000118   1.000000000000e+00
    X0000079  C0000119  -1.000000000000e+00
    X0000079  C0000120   1.000000000000e+00
    X0000079  C0000121  -1.000000000000e+00
    X0000079  C0000122   1.000000000000e+00
    X0000079  C0000123  -1.000000000000e+00
    X0000079  C0000124   1.000000000000e+00
    X0000079  C0000125  -1.000000000000e+00
    X0000079  C0000126  -5.000000000000e+00
    X0000079  C0000127   5.000000000000e+00
    X0000079  C0000128   6.000000000000e+00
    X0000079  C0000129  -6.000000000000e+00
    X0000079  C0000136   1.050000000000e+04
    X0000079  C0000137   5.250000000000e+03
    X0000079  C0000138  -2.500000000000e+02
    X0000079  C0000139  -4.000000000000e+02
    X0000079  C0000140  -4.000000000000e+02
    X0000079  C0000141   1.700000000000e+03
    X0000079  C0000142  -4.000000000000e+02
    X0000079  C0000143  -4.000000000000e+02
    X0000079  C0000144  -5.000000000000e+02
    X0000079  C0000145  -4.000000000000e+02
    X0000079  C0000146  -4.000000000000e+02
    X0000079  C0000147  -5.000000000000e+02
    X0000079  C0000148  -5.000000000000e+02
    X0000079  C0000149  -4.000000000000e+02
    X0000079  C0000150   1.700000000000e+03
    X0000079  C0000151   1.700000000000e+03
    X0000079  C0000152   1.700000000000e+03
    X0000079  C0000153   1.700000000000e+03
    X0000079  C0000154   1.700000000000e+03
    X0000079  C0000155   1.700000000000e+03
    X0000079  C0000156   1.700000000000e+03
    X0000079  C0000157   1.700000000000e+03
    X0000079  C0000158  -4.000000000000e+02
    X0000079  C0000159   1.700000000000e+03
    X0000079  C0000160  -4.000000000000e+02
    X0000079  C0000161  -4.000000000000e+02
    X0000079  C0000162   1.700000000000e+03
    X0000079  C0000163  -4.000000000000e+02
    X0000079  C0000164  -4.000000000000e+02
    X0000079  C0000165  -5.000000000000e+02
    X0000079  C0000166  -5.000000000000e+02
    X0000079  C0000167  -5.000000000000e+02
    X0000079  C0000168  -5.000000000000e+02
    X0000079  C0000169  -5.000000000000e+02
    X0000079  C0000170  -5.000000000000e+02
    X0000079  C0000171  -5.000000000000e+02
    X0000079  C0000172  -5.000000000000e+02
    X0000079  C0000173  -5.000000000000e+02
    X0000079  C0000174  -5.000000000000e+02
    X0000079  C0000175  -5.000000000000e+02
    X0000079  C0000176  -5.000000000000e+02
    X0000079  C0000177  -5.000000000000e+02
    X0000079  C0000178  -5.000000000000e+02
    X0000079  C0000179  -5.000000000000e+02
    X0000079  C0000180  -4.000000000000e+02
    X0000079  C0000181   1.700000000000e+03
    X0000079  C0000182   1.700000000000e+03
    X0000079  C0000183   1.700000000000e+03
    X0000079  C0000184   1.700000000000e+03
    X0000079  C0000185   1.700000000000e+03
    X0000079  C0000186  -4.000000000000e+02
    X0000079  C0000187  -4.000000000000e+02
    X0000079  C0000188  -5.000000000000e+02
    X0000079  C0000189  -5.000000000000e+02
    X0000079  C0000190  -5.000000000000e+02
    X0000079  C0000191  -4.000000000000e+02
    X0000079  OBJ        1.800000000000e+02
    MARK      'MARKER'                 'INTEND'
    MARK      'MARKER'                 'INTORG'
    X0000080  C0000118   1.000000000000e+00
    X0000080  C0000119  -1.000000000000e+00
    X0000080  C0000120   1.000000000000e+00
    X0000080  C0000121  -1.000000000000e+00
    X0000080  C0000122   1.000000000000e+00
    X0000080  C0000123  -1.000000000000e+00
    X0000080  C0000124   1.000000000000e+00
    X0000080  C0000125  -1.000000000000e+00
    X0000080  C0000126   1.000000000000e+00
    X0000080  C0000127  -1.000000000000e+00
    X0000080  C0000128  -5.000000000000e+00
    X0000080  C0000129   5.000000000000e+00
    X0000080  C0000130   6.000000000000e+00
    X0000080  C0000131  -6.000000000000e+00
    X0000080  C0000136   1.050000000000e+04
    X0000080  C0000137   8.400000000000e+03
    X0000080  C0000138  -1.000000000000e+02
    X0000080  C0000139  -5.000000000000e+02
    X0000080  C0000140  -5.000000000000e+02
    X0000080  C0000141  -5.000000000000e+02
    X0000080  C0000142  -5.000000000000e+02
    X0000080  C0000144  -5.000000000000e+02
    X0000080  C0000145   1.050000000000e+04
    X0000080  C0000146  -1.000000000000e+02
    X0000080  C0000147  -5.000000000000e+02
    X0000080  C0000148  -5.000000000000e+02
    X0000080  C0000149  -5.000000000000e+02
    X0000080  C0000150  -5.000000000000e+02
    X0000080  C0000151  -5.000000000000e+02
    X0000080  C0000152  -5.000000000000e+02
    X0000080  C0000153  -5.000000000000e+02
    X0000080  C0000154  -5.000000000000e+02
    X0000080  C0000155  -5.000000000000e+02
    X0000080  C0000156  -5.000000000000e+02
    X0000080  C0000157  -5.000000000000e+02
    X0000080  C0000158  -5.000000000000e+02
    X0000080  C0000159   1.050000000000e+04
    X0000080  C0000160   1.050000000000e+04
    X0000080  C0000161   8.300000000000e+03
    X0000080  C0000162   5.000000000000e+03
    X0000080  C0000163   5.000000000000e+03
    X0000080  C0000164  -5.000000000000e+02
    X0000080  C0000165  -5.000000000000e+02
    X0000080  C0000166  -5.000000000000e+02
    X0000080  C0000167  -5.000000000000e+02
    X0000080  C0000168  -5.000000000000e+02
    X0000080  C0000169  -5.000000000000e+02
    X0000080  C0000170  -5.000000000000e+02
    X0000080  C0000171  -5.000000000000e+02
    X0000080  C0000172  -5.000000000000e+02
    X0000080  C0000173  -5.000000000000e+02
    X0000080  C0000174  -5.000000000000e+02
    X0000080  C0000175  -5.000000000000e+02
    X0000080  C0000176  -5.000000000000e+02
    X0000080  C0000178  -5.000000000000e+02
    X0000080  C0000179  -5.000000000000e+02
    X0000080  C0000180  -5.000000000000e+02
    X0000080  C0000181  -5.000000000000e+02
    X0000080  C0000182   1.050000000000e+04
    X0000080  C0000183   1.050000000000e+04
    X0000080  C0000184   8.300000000000e+03
    X0000080  C0000185   5.150000000000e+03
    X0000080  C0000186   5.250000000000e+03
    X0000080  C0000187  -2.500000000000e+02
    X0000080  C0000188  -5.000000000000e+02
    X0000080  C0000189  -5.000000000000e+02
    X0000080  C0000190  -5.000000000000e+02
    X0000080  C0000191   8.400000000000e+03
    X0000080  OBJ        1.800000000000e+02
    MARK      'MARKER'                 'INTEND'
    MARK      'MARKER'                 'INTORG'
    X0000081  C0000120   1.000000000000e+00
    X0000081  C0000121  -1.000000000000e+00
    X0000081  C0000122   1.000000000000e+00
    X0000081  C0000123  -1.000000000000e+00
    X0000081  C0000124   1.000000000000e+00
    X0000081  C0000125  -1.000000000000e+00
    X0000081  C0000126   1.000000000000e+00
    X0000081  C0000127  -1.000000000000e+00
    X0000081  C0000128   1.000000000000e+00
    X0000081  C0000129  -1.000000000000e+00
    X0000081  C0000130  -5.000000000000e+00
    X0000081  C0000131   5.000000000000e+00
    X0000081  C0000132   6.000000000000e+00
    X0000081  C0000133  -6.000000000000e+00
    X0000081  C0000136   1.050000000000e+04
    X0000081  C0000138  -5.000000000000e+02
    X0000081  C0000139  -5.000000000000e+02
    X0000081  C0000140  -5.000000000000e+02
    X0000081  C0000141  -5.000000000000e+02
    X0000081  C0000142  -5.000000000000e+02
    X0000081  C0000143  -2.500000000000e+02
    X0000081  C0000144  -6.250000000000e+02
    X0000081  C0000148  -6.250000000000e+02
    X0000081  C0000150   1.050000000000e+04
    X0000081  C0000151  -5.000000000000e+02
    X0000081  C0000152  -5.000000000000e+02
    X0000081  C0000153  -5.000000000000e+02
    X0000081  C0000154  -5.000000000000e+02
    X0000081  C0000155  -5.000000000000e+02
    X0000081  C0000156  -5.000000000000e+02
    X0000081  C0000157  -5.000000000000e+02
    X0000081  C0000158  -5.000000000000e+02
    X0000081  C0000159   5.000000000000e+03
    X0000081  C0000160  -5.000000000000e+02
    X0000081  C0000161  -5.000000000000e+02
    X0000081  C0000162  -5.000000000000e+02
    X0000081  C0000163  -5.000000000000e+02
    X0000081  C0000164   5.000000000000e+03
    X0000081  C0000165  -5.000000000000e+02
    X0000081  C0000166  -5.000000000000e+02
    X0000081  C0000167  -5.000000000000e+02
    X0000081  C0000173  -6.250000000000e+02
    X0000081  C0000174  -2.500000000000e+02
    X0000081  C0000175  -5.000000000000e+02
    X0000081  C0000176  -5.000000000000e+02
    X0000081  C0000177  -5.000000000000e+02
    X0000081  C0000178  -5.000000000000e+02
    X0000081  C0000179  -5.000000000000e+02
    X0000081  C0000180  -5.000000000000e+02
    X0000081  C0000181  -5.000000000000e+02
    X0000081  C0000182  -5.000000000000e+02
    X0000081  C0000183  -5.000000000000e+02
    X0000081  C0000184  -5.000000000000e+02
    X0000081  C0000185  -5.000000000000e+02
    X0000081  C0000186  -5.000000000000e+02
    X0000081  C0000187  -2.500000000000e+02
    X0000081  C0000191  -2.500000000000e+02
    X0000081  OBJ        1.800000000000e+02
    MARK      'MARKER'                 'INTEND'
    MARK      'MARKER'                 'INTORG'
    X0000082  C0000122   1.000000000000e+00
    X0000082  C0000123  -1.000000000000e+00
    X0000082  C0000124   1.000000000000e+00
    X0000082  C0000125  -1.000000000000e+00
    X0000082  C0000126   1.000000000000e+00
    X0000082  C0000127  -1.000000000000e+00
    X0000082  C0000128   1.000000000000e+00
    X0000082  C0000129  -1.000000000000e+00
    X0000082  C0000130   1.000000000000e+00
    X0000082  C0000131  -1.000000000000e+00
    X0000082  C0000132  -5.000000000000e+00
    X0000082  C0000133   5.000000000000e+00
    X0000082  C0000134   6.000000000000e+00
    X0000082  C0000135  -6.000000000000e+00
    X0000082  C0000136   1.050000000000e+04
    X0000082  C0000137  -1.500000000000e+02
    X0000082  C0000138  -2.500000000000e+02
    X0000082  C0000139  -5.750000000000e+02
    X0000082  C0000140  -5.750000000000e+02
    X0000082  C0000141  -5.750000000000e+02
    X0000082  C0000142   5.000000000000e+03
    X0000082  C0000143   4.925000000000e+03
    X0000082  C0000144  -6.250000000000e+02
    X0000082  C0000145  -5.750000000000e+02
    X0000082  C0000146  -6.250000000000e+02
    X0000082  C0000147  -6.250000000000e+02
    X0000082  C0000148  -6.250000000000e+02
    X0000082  C0000149  -6.250000000000e+02
    X0000082  C0000150  -6.250000000000e+02
    X0000082  C0000151  -5.750000000000e+02
    X0000082  C0000152  -5.750000000000e+02
    X0000082  C0000153  -5.750000000000e+02
    X0000082  C0000154   5.000000000000e+03
    X0000082  C0000155   4.925000000000e+03
    X0000082  C0000156  -5.750000000000e+02
    X0000082  C0000157  -5.750000000000e+02
    X0000082  C0000158  -5.750000000000e+02
    X0000082  C0000159   5.000000000000e+03
    X0000082  C0000160   4.925000000000e+03
    X0000082  C0000161  -5.750000000000e+02
    X0000082  C0000162  -5.750000000000e+02
    X0000082  C0000163  -5.750000000000e+02
    X0000082  C0000164   5.000000000000e+03
    X0000082  C0000165   4.925000000000e+03
    X0000082  C0000166  -5.750000000000e+02
    X0000082  C0000167  -5.750000000000e+02
    X0000082  C0000168  -6.250000000000e+02
    X0000082  C0000169  -6.250000000000e+02
    X0000082  C0000170  -3.750000000000e+02
    X0000082  C0000171  -3.250000000000e+02
    X0000082  C0000172  -3.250000000000e+02
    X0000082  C0000173  -5.750000000000e+02
    X0000082  C0000174  -5.750000000000e+02
    X0000082  C0000175  -5.750000000000e+02
    X0000082  C0000176  -5.750000000000e+02
    X0000082  C0000177  -3.250000000000e+02
    X0000082  C0000178  -3.250000000000e+02
    X0000082  C0000179  -5.750000000000e+02
    X0000082  C0000180  -5.750000000000e+02
    X0000082  C0000181  -5.750000000000e+02
    X0000082  C0000182  -5.750000000000e+02
    X0000082  C0000183  -5.750000000000e+02
    X0000082  C0000184   5.000000000000e+03
    X0000082  C0000185   4.925000000000e+03
    X0000082  C0000186  -5.750000000000e+02
    X0000082  C0000187  -5.750000000000e+02
    X0000082  C0000188  -5.750000000000e+02
    X0000082  C0000189  -5.750000000000e+02
    X0000082  C0000190  -5.750000000000e+02
    X0000082  C0000191  -5.750000000000e+02
    X0000082  OBJ        1.800000000000e+02
    MARK      'MARKER'                 'INTEND'
    MARK      'MARKER'                 'INTORG'
    X0000083  C0000124   1.000000000000e+00
    X0000083  C0000125  -1.000000000000e+00
    X0000083  C0000126   1.000000000000e+00
    X0000083  C0000127  -1.000000000000e+00
    X0000083  C0000128   1.000000000000e+00
    X0000083  C0000129  -1.000000000000e+00
    X0000083  C0000130   1.000000000000e+00
    X0000083  C0000131  -1.000000000000e+00
    X0000083  C0000132   1.000000000000e+00
    X0000083  C0000133  -1.000000000000e+00
    X0000083  C0000134  -5.000000000000e+00
    X0000083  C0000135   5.000000000000e+00
    X0000083  C0000136   1.050000000000e+04
    X0000083  C0000137  -7.500000000000e+02
    X0000083  C0000138  -7.500000000000e+02
    X0000083  C0000139  -5.000000000000e+02
    X0000083  C0000140  -7.500000000000e+02
    X0000083  C0000141  -7.500000000000e+02
    X0000083  C0000142   1.700000000000e+03
    X0000083  C0000143  -7.500000000000e+02
    X0000083  C0000144  -7.500000000000e+02
    X0000083  C0000145  -7.500000000000e+02
    X0000083  C0000146  -7.500000000000e+02
    X0000083  C0000147  -7.500000000000e+02
    X0000083  C0000148  -7.500000000000e+02
    X0000083  C0000149  -7.500000000000e+02
    X0000083  C0000150   1.050000000000e+04
    X0000083  C0000151   1.050000000000e+04
    X0000083  C0000152  -7.500000000000e+02
    X0000083  C0000153  -7.500000000000e+02
    X0000083  C0000154  -7.500000000000e+02
    X0000083  C0000155  -5.000000000000e+02
    X0000083  C0000156  -5.750000000000e+02
    X0000083  C0000161  -5.250000000000e+02
    X0000083  C0000170  -7.500000000000e+02
    X0000083  C0000172  -6.000000000000e+02
    X0000083  C0000173  -7.500000000000e+02
    X0000083  C0000174  -7.500000000000e+02
    X0000083  C0000175  -7.500000000000e+02
    X0000083  C0000176  -7.500000000000e+02
    X0000083  C0000177  -7.500000000000e+02
    X0000083  C0000178  -7.500000000000e+02
    X0000083  C0000179  -7.500000000000e+02
    X0000083  C0000180  -7.500000000000e+02
    X0000083  C0000181  -7.500000000000e+02
    X0000083  C0000182  -7.500000000000e+02
    X0000083  C0000183  -7.500000000000e+02
    X0000083  C0000184  -7.500000000000e+02
    X0000083  C0000185  -7.500000000000e+02
    X0000083  C0000186  -7.500000000000e+02
    X0000083  C0000187  -7.500000000000e+02
    X0000083  C0000188  -7.500000000000e+02
    X0000083  C0000189  -7.500000000000e+02
    X0000083  C0000190  -7.500000000000e+02
    X0000083  OBJ        1.800000000000e+02
    MARK      'MARKER'                 'INTEND'
    MARK      'MARKER'                 'INTORG'
    X0000084  C0000126   1.000000000000e+00
    X0000084  C0000127  -1.000000000000e+00
    X0000084  C0000128   1.000000000000e+00
    X0000084  C0000129  -1.000000000000e+00
    X0000084  C0000130   1.000000000000e+00
    X0000084  C0000131  -1.000000000000e+00
    X0000084  C0000132   1.000000000000e+00
    X0000084  C0000133  -1.000000000000e+00
    X0000084  C0000134   1.000000000000e+00
    X0000084  C0000135  -1.000000000000e+00
    X0000084  C0000136   2.100000000000e+03
    X0000084  C0000137   1.050000000000e+04
    X0000084  C0000138  -5.000000000000e+02
    X0000084  C0000139   1.050000000000e+04
    X0000084  C0000140  -5.000000000000e+02
    X0000084  C0000141  -7.500000000000e+02
    X0000084  C0000142  -7.500000000000e+02
    X0000084  C0000143  -7.500000000000e+02
    X0000084  C0000144  -7.500000000000e+02
    X0000084  C0000145  -7.500000000000e+02
    X0000084  C0000146  -7.500000000000e+02
    X0000084  C0000147  -7.500000000000e+02
    X0000084  C0000148  -7.500000000000e+02
    X0000084  C0000149  -7.500000000000e+02
    X0000084  C0000150  -7.500000000000e+02
    X0000084  C0000151  -7.500000000000e+02
    X0000084  C0000152  -7.500000000000e+02
    X0000084  C0000153  -7.500000000000e+02
    X0000084  C0000154  -7.500000000000e+02
    X0000084  C0000155  -7.500000000000e+02
    X0000084  C0000156  -7.500000000000e+02
    X0000084  C0000157  -7.500000000000e+02
    X0000084  C0000158  -7.500000000000e+02
    X0000084  C0000159  -7.500000000000e+02
    X0000084  C0000160  -7.500000000000e+02
    X0000084  C0000161  -5.250000000000e+02
    X0000084  C0000164  -3.750000000000e+02
    X0000084  OBJ        1.800000000000e+02
    MARK      'MARKER'                 'INTEND'
    MARK      'MARKER'                 'INTORG'
    X0000085  C0000098   1.000000000000e+00
    X0000085  C0000099  -1.000000000000e+00
    X0000085  C0000100   1.000000000000e+00
    X0000085  C0000101  -1.000000000000e+00
    X0000085  C0000102  -5.000000000000e+00
    X0000085  C0000103   5.000000000000e+00
    X0000085  C0000104   6.000000000000e+00
    X0000085  C0000105  -6.000000000000e+00
    X0000085  C0000136  -3.000000000000e+02
    X0000085  C0000137   1.050000000000e+04
    X0000085  C0000138   4.950000000000e+03
    X0000085  C0000139  -7.750000000000e+02
    X0000085  C0000140  -7.750000000000e+02
    X0000085  C0000141  -7.750000000000e+02
    X0000085  C0000142  -7.750000000000e+02
    X0000085  C0000143  -7.750000000000e+02
    X0000085  C0000144  -7.750000000000e+02
    X0000085  C0000145  -7.750000000000e+02
    X0000085  C0000146  -8.125000000000e+02
    X0000085  C0000147  -8.125000000000e+02
    X0000085  C0000148  -8.125000000000e+02
    X0000085  C0000149   4.875000000000e+03
    X0000085  C0000150  -7.750000000000e+02
    X0000085  C0000151  -7.750000000000e+02
    X0000085  C0000152  -7.750000000000e+02
    X0000085  C0000153  -7.750000000000e+02
    X0000085  C0000154   4.875000000000e+03
    X0000085  C0000155  -7.750000000000e+02
    X0000085  C0000156  -7.750000000000e+02
    X0000085  C0000157  -7.750000000000e+02
    X0000085  C0000158  -7.750000000000e+02
    X0000085  C0000161  -5.500000000000e+02
    X0000085  C0000173   5.250000000000e+03
    X0000085  OBJ        1.800000000000e+02
    MARK      'MARKER'                 'INTEND'
    MARK      'MARKER'                 'INTORG'
    X0000086  C0000128   1.000000000000e+00
    X0000086  C0000129  -1.000000000000e+00
    X0000086  C0000130   1.000000000000e+00
    X0000086  C0000131  -1.000000000000e+00
    X0000086  C0000132   1.000000000000e+00
    X0000086  C0000133  -1.000000000000e+00
    X0000086  C0000134   1.000000000000e+00
    X0000086  C0000135  -1.000000000000e+00
    X0000086  C0000136   3.150000000000e+03
    X0000086  C0000137   1.050000000000e+04
    X0000086  C0000138  -7.500000000000e+02
    X0000086  C0000139   1.050000000000e+04
    X0000086  C0000140  -6.750000000000e+02
    X0000086  C0000141  -7.500000000000e+02
    X0000086  C0000142  -7.500000000000e+02
    X0000086  C0000143  -7.500000000000e+02
    X0000086  C0000144  -7.500000000000e+02
    X0000086  C0000145  -7.500000000000e+02
    X0000086  C0000146  -7.500000000000e+02
    X0000086  C0000147  -7.500000000000e+02
    X0000086  C0000148  -7.500000000000e+02
    X0000086  C0000149  -7.500000000000e+02
    X0000086  C0000150  -7.500000000000e+02
    X0000086  C0000151  -7.500000000000e+02
    X0000086  C0000152  -7.500000000000e+02
    X0000086  C0000153  -7.500000000000e+02
    X0000086  C0000154  -7.500000000000e+02
    X0000086  C0000155  -7.500000000000e+02
    X0000086  C0000156  -7.500000000000e+02
    X0000086  C0000157  -7.500000000000e+02
    X0000086  C0000158  -7.500000000000e+02
    X0000086  C0000159  -7.500000000000e+02
    X0000086  C0000160  -7.500000000000e+02
    X0000086  C0000161  -5.250000000000e+02
    X0000086  C0000164  -3.750000000000e+02
    X0000086  OBJ        1.800000000000e+02
    MARK      'MARKER'                 'INTEND'
    MARK      'MARKER'                 'INTORG'
    X0000087  C0000130   1.000000000000e+00
    X0000087  C0000131  -1.000000000000e+00
    X0000087  C0000132   1.000000000000e+00
    X0000087  C0000133  -1.000000000000e+00
    X0000087  C0000134   1.000000000000e+00
    X0000087  C0000135  -1.000000000000e+00
    X0000087  C0000136  -4.000000000000e+02
    X0000087  C0000137   1.050000000000e+04
    X0000087  C0000138   5.250000000000e+03
    X0000087  C0000139  -7.500000000000e+02
    X0000087  C0000140  -8.125000000000e+02
    X0000087  C0000141  -8.125000000000e+02
    X0000087  C0000142  -6.000000000000e+02
    X0000087  C0000143   5.250000000000e+03
    X0000087  C0000144  -7.500000000000e+02
    X0000087  C0000145  -8.125000000000e+02
    X0000087  C0000146  -8.125000000000e+02
    X0000087  C0000147   1.500000000000e+03
    X0000087  C0000148  -8.750000000000e+02
    X0000087  C0000149  -8.500000000000e+02
    X0000087  C0000150  -8.500000000000e+02
    X0000087  C0000151  -8.500000000000e+02
    X0000087  C0000152  -8.500000000000e+02
    X0000087  C0000153  -8.500000000000e+02
    X0000087  C0000154   1.500000000000e+03
    X0000087  C0000155  -8.125000000000e+02
    X0000087  C0000156  -8.125000000000e+02
    X0000087  C0000157  -8.125000000000e+02
    X0000087  C0000158   1.500000000000e+03
    X0000087  C0000159  -7.000000000000e+02
    X0000087  C0000160  -7.500000000000e+02
    X0000087  C0000161  -7.500000000000e+02
    X0000087  C0000162  -7.500000000000e+02
    X0000087  C0000163  -8.125000000000e+02
    X0000087  C0000164  -7.500000000000e+02
    X0000087  C0000165   1.700000000000e+03
    X0000087  C0000166  -7.500000000000e+02
    X0000087  C0000173   2.100000000000e+03
    X0000087  OBJ        1.800000000000e+02
    MARK      'MARKER'                 'INTEND'
    MARK      'MARKER'                 'INTORG'
    X0000088  C0000132   1.000000000000e+00
    X0000088  C0000133  -1.000000000000e+00
    X0000088  C0000134   1.000000000000e+00
    X0000088  C0000135  -1.000000000000e+00
    X0000088  C0000136  -6.250000000000e+02
    X0000088  C0000137   1.050000000000e+04
    X0000088  C0000138   1.050000000000e+04
    X0000088  C0000139  -8.125000000000e+02
    X0000088  C0000140  -8.125000000000e+02
    X0000088  C0000141  -8.375000000000e+02
    X0000088  C0000142  -8.125000000000e+02
    X0000088  C0000143   4.875000000000e+03
    X0000088  C0000144   4.875000000000e+03
    X0000088  C0000145  -8.125000000000e+02
    X0000088  C0000146   4.812500000000e+03
    X0000088  C0000147  -8.125000000000e+02
    X0000088  C0000148  -8.125000000000e+02
    X0000088  C0000149  -8.375000000000e+02
    X0000088  C0000150  -8.125000000000e+02
    X0000088  C0000151  -8.125000000000e+02
    X0000088  C0000152   2.562500000000e+03
    X0000088  C0000153  -8.125000000000e+02
    X0000088  C0000154  -8.375000000000e+02
    X0000088  C0000155  -8.375000000000e+02
    X0000088  C0000156  -8.375000000000e+02
    X0000088  C0000157  -8.375000000000e+02
    X0000088  C0000158  -8.375000000000e+02
    X0000088  C0000161  -5.875000000000e+02
    X0000088  C0000163   3.150000000000e+03
    X0000088  C0000164   5.250000000000e+03
    X0000088  C0000174   5.250000000000e+03
    X0000088  C0000191  -7.500000000000e+02
    X0000088  OBJ        1.800000000000e+02
    MARK      'MARKER'                 'INTEND'
    MARK      'MARKER'                 'INTORG'
    X0000089  C0000134   1.000000000000e+00
    X0000089  C0000135  -1.000000000000e+00
    X0000089  C0000136  -6.250000000000e+02
    X0000089  C0000137   1.050000000000e+04
    X0000089  C0000138   1.050000000000e+04
    X0000089  C0000139  -7.875000000000e+02
    X0000089  C0000140  -8.750000000000e+02
    X0000089  C0000141  -8.750000000000e+02
    X0000089  C0000142  -8.750000000000e+02
    X0000089  C0000143   1.050000000000e+04
    X0000089  C0000144  -7.500000000000e+02
    X0000089  C0000145   4.875000000000e+03
    X0000089  C0000146   7.125000000000e+03
    X0000089  C0000147  -8.125000000000e+02
    X0000089  C0000148  -8.750000000000e+02
    X0000089  C0000149  -8.750000000000e+02
    X0000089  C0000150  -8.750000000000e+02
    X0000089  C0000151  -7.875000000000e+02
    X0000089  C0000152  -8.750000000000e+02
    X0000089  C0000153  -7.875000000000e+02
    X0000089  C0000154   4.875000000000e+03
    X0000089  C0000155   7.125000000000e+03
    X0000089  C0000156   1.050000000000e+04
    X0000089  C0000157  -8.125000000000e+02
    X0000089  C0000158  -8.750000000000e+02
    X0000089  C0000161  -6.125000000000e+02
    X0000089  C0000185  -8.750000000000e+02
    X0000089  C0000186  -8.750000000000e+02
    X0000089  C0000187  -8.750000000000e+02
    X0000089  C0000188  -8.750000000000e+02
    X0000089  C0000189  -8.125000000000e+02
    X0000089  C0000190   4.837500000000e+03
    X0000089  C0000191  -8.125000000000e+02
    X0000089  OBJ        1.800000000000e+02
    MARK      'MARKER'                 'INTEND'
    MARK      'MARKER'                 'INTORG'
    X0000090  C0000098   1.000000000000e+00
    X0000090  C0000099  -1.000000000000e+00
    X0000090  C0000100   1.000000000000e+00
    X0000090  C0000101  -1.000000000000e+00
    X0000090  C0000102   1.000000000000e+00
    X0000090  C0000103  -1.000000000000e+00
    X0000090  C0000104  -5.000000000000e+00
    X0000090  C0000105   5.000000000000e+00
    X0000090  C0000106   6.000000000000e+00
    X0000090  C0000107  -6.000000000000e+00
    X0000090  C0000136  -5.750000000000e+02
    X0000090  C0000137   1.050000000000e+04
    X0000090  C0000138  -5.750000000000e+02
    X0000090  C0000139  -7.875000000000e+02
    X0000090  C0000140  -7.875000000000e+02
    X0000090  C0000141  -8.750000000000e+02
    X0000090  C0000142  -8.750000000000e+02
    X0000090  C0000143  -8.750000000000e+02
    X0000090  C0000144  -8.750000000000e+02
    X0000090  C0000145  -8.750000000000e+02
    X0000090  C0000146  -8.750000000000e+02
    X0000090  C0000147  -8.750000000000e+02
    X0000090  C0000148  -8.750000000000e+02
    X0000090  C0000149  -7.875000000000e+02
    X0000090  C0000150  -7.875000000000e+02
    X0000090  C0000151  -7.875000000000e+02
    X0000090  C0000152  -8.750000000000e+02
    X0000090  C0000153  -8.750000000000e+02
    X0000090  C0000154  -7.875000000000e+02
    X0000090  C0000155  -7.875000000000e+02
    X0000090  C0000156  -7.875000000000e+02
    X0000090  C0000157  -8.750000000000e+02
    X0000090  C0000158  -8.750000000000e+02
    X0000090  C0000161  -6.125000000000e+02
    X0000090  OBJ        1.800000000000e+02
    MARK      'MARKER'                 'INTEND'
    MARK      'MARKER'                 'INTORG'
    X0000091  C0000098   1.000000000000e+00
    X0000091  C0000099  -1.000000000000e+00
    X0000091  C0000100   1.000000000000e+00
    X0000091  C0000101  -1.000000000000e+00
    X0000091  C0000102   1.000000000000e+00
    X0000091  C0000103  -1.000000000000e+00
    X0000091  C0000104   1.000000000000e+00
    X0000091  C0000105  -1.000000000000e+00
    X0000091  C0000106  -5.000000000000e+00
    X0000091  C0000107   5.000000000000e+00
    X0000091  C0000108   6.000000000000e+00
    X0000091  C0000109  -6.000000000000e+00
    X0000091  C0000136   1.950000000000e+03
    X0000091  C0000137   1.050000000000e+04
    X0000091  C0000138   1.050000000000e+04
    X0000091  C0000139  -7.500000000000e+02
    X0000091  C0000140  -7.500000000000e+02
    X0000091  C0000141  -7.500000000000e+02
    X0000091  C0000142  -7.500000000000e+02
    X0000091  C0000143  -7.500000000000e+02
    X0000091  C0000144  -7.500000000000e+02
    X0000091  C0000145  -7.500000000000e+02
    X0000091  C0000146  -7.500000000000e+02
    X0000091  C0000147  -7.500000000000e+02
    X0000091  C0000148  -7.500000000000e+02
    X0000091  C0000149  -7.500000000000e+02
    X0000091  C0000150  -7.500000000000e+02
    X0000091  C0000151  -7.500000000000e+02
    X0000091  C0000152  -7.500000000000e+02
    X0000091  C0000153  -7.500000000000e+02
    X0000091  C0000154  -7.500000000000e+02
    X0000091  C0000155  -7.500000000000e+02
    X0000091  C0000156  -7.500000000000e+02
    X0000091  C0000157  -7.500000000000e+02
    X0000091  C0000158  -7.500000000000e+02
    X0000091  C0000161  -4.750000000000e+02
    X0000091  OBJ        1.800000000000e+02
    MARK      'MARKER'                 'INTEND'
    MARK      'MARKER'                 'INTORG'
    X0000092  C0000098   1.000000000000e+00
    X0000092  C0000099  -1.000000000000e+00
    X0000092  C0000100   1.000000000000e+00
    X0000092  C0000101  -1.000000000000e+00
    X0000092  C0000102   1.000000000000e+00
    X0000092  C0000103  -1.000000000000e+00
    X0000092  C0000104   1.000000000000e+00
    X0000092  C0000105  -1.000000000000e+00
    X0000092  C0000106   1.000000000000e+00
    X0000092  C0000107  -1.000000000000e+00
    X0000092  C0000108  -5.000000000000e+00
    X0000092  C0000109   5.000000000000e+00
    X0000092  C0000110   6.000000000000e+00
    X0000092  C0000111  -6.000000000000e+00
    X0000092  C0000136   3.150000000000e+03
    X0000092  C0000137   2.800000000000e+03
    X0000092  C0000138   2.625000000000e+03
    X0000092  C0000139  -7.500000000000e+02
    X0000092  C0000140  -7.500000000000e+02
    X0000092  C0000141  -7.500000000000e+02
    X0000092  C0000142  -6.750000000000e+02
    X0000092  C0000143  -5.250000000000e+02
    X0000092  C0000144   2.625000000000e+03
    X0000092  C0000145   2.625000000000e+03
    X0000092  C0000146  -7.500000000000e+02
    X0000092  C0000147  -7.500000000000e+02
    X0000092  C0000148  -6.750000000000e+02
    X0000092  C0000149  -6.750000000000e+02
    X0000092  C0000150   2.625000000000e+03
    X0000092  C0000151   2.625000000000e+03
    X0000092  C0000152   2.625000000000e+03
    X0000092  C0000153   2.625000000000e+03
    X0000092  C0000154  -7.500000000000e+02
    X0000092  C0000155  -7.500000000000e+02
    X0000092  C0000156  -7.500000000000e+02
    X0000092  C0000157  -7.500000000000e+02
    X0000092  C0000158  -6.750000000000e+02
    X0000092  C0000161  -5.250000000000e+02
    X0000092  C0000169   3.150000000000e+03
    X0000092  C0000170   3.150000000000e+03
    X0000092  C0000171   3.150000000000e+03
    X0000092  C0000172   3.150000000000e+03
    X0000092  C0000173   3.150000000000e+03
    X0000092  C0000178   3.150000000000e+03
    X0000092  C0000179   3.150000000000e+03
    X0000092  C0000180   3.150000000000e+03
    X0000092  OBJ        1.800000000000e+02
    MARK      'MARKER'                 'INTEND'
    MARK      'MARKER'                 'INTORG'
    X0000093  C0000100   1.000000000000e+00
    X0000093  C0000101  -1.000000000000e+00
    X0000093  C0000102   1.000000000000e+00
    X0000093  C0000103  -1.000000000000e+00
    X0000093  C0000104   1.000000000000e+00
    X0000093  C0000105  -1.000000000000e+00
    X0000093  C0000106   1.000000000000e+00
    X0000093  C0000107  -1.000000000000e+00
    X0000093  C0000108   1.000000000000e+00
    X0000093  C0000109  -1.000000000000e+00
    X0000093  C0000110  -5.000000000000e+00
    X0000093  C0000111   5.000000000000e+00
    X0000093  C0000112   6.000000000000e+00
    X0000093  C0000113  -6.000000000000e+00
    X0000093  C0000136   1.050000000000e+04
    X0000093  C0000137  -5.000000000000e+02
    X0000093  C0000138  -6.750000000000e+02
    X0000093  C0000139  -7.500000000000e+02
    X0000093  C0000140  -7.500000000000e+02
    X0000093  C0000141  -6.750000000000e+02
    X0000093  C0000142  -4.000000000000e+02
    X0000093  C0000143   8.250000000000e+03
    X0000093  C0000144   8.250000000000e+03
    X0000093  C0000145   8.250000000000e+03
    X0000093  C0000146  -7.500000000000e+02
    X0000093  C0000147  -7.500000000000e+02
    X0000093  C0000148  -7.500000000000e+02
    X0000093  C0000149  -6.750000000000e+02
    X0000093  C0000150  -7.500000000000e+02
    X0000093  C0000151  -7.500000000000e+02
    X0000093  C0000152  -7.500000000000e+02
    X0000093  C0000153  -7.500000000000e+02
    X0000093  C0000154  -7.500000000000e+02
    X0000093  C0000155  -7.500000000000e+02
    X0000093  C0000156  -7.500000000000e+02
    X0000093  C0000157  -7.500000000000e+02
    X0000093  C0000158  -5.500000000000e+02
    X0000093  C0000159  -7.500000000000e+02
    X0000093  C0000160  -7.500000000000e+02
    X0000093  C0000161  -7.500000000000e+02
    X0000093  C0000162  -7.500000000000e+02
    X0000093  C0000163  -7.500000000000e+02
    X0000093  C0000164  -7.500000000000e+02
    X0000093  C0000165  -7.500000000000e+02
    X0000093  C0000166  -6.750000000000e+02
    X0000093  C0000167   2.750000000000e+03
    X0000093  C0000168   8.250000000000e+03
    X0000093  C0000169   8.250000000000e+03
    X0000093  C0000170   8.250000000000e+03
    X0000093  C0000171   8.250000000000e+03
    X0000093  C0000172  -7.500000000000e+02
    X0000093  C0000173  -1.500000000000e+02
    X0000093  C0000177   3.150000000000e+03
    X0000093  C0000190   3.150000000000e+03
    X0000093  OBJ        1.800000000000e+02
    MARK      'MARKER'                 'INTEND'
    MARK      'MARKER'                 'INTORG'
    X0000094  C0000102   1.000000000000e+00
    X0000094  C0000103  -1.000000000000e+00
    X0000094  C0000104   1.000000000000e+00
    X0000094  C0000105  -1.000000000000e+00
    X0000094  C0000106   1.000000000000e+00
    X0000094  C0000107  -1.000000000000e+00
    X0000094  C0000108   1.000000000000e+00
    X0000094  C0000109  -1.000000000000e+00
    X0000094  C0000110   1.000000000000e+00
    X0000094  C0000111  -1.000000000000e+00
    X0000094  C0000112  -5.000000000000e+00
    X0000094  C0000113   5.000000000000e+00
    X0000094  C0000114   6.000000000000e+00
    X0000094  C0000115  -6.000000000000e+00
    X0000094  C0000136   1.050000000000e+04
    X0000094  C0000137  -3.500000000000e+02
    X0000094  C0000138  -5.000000000000e+02
    X0000094  C0000139  -6.750000000000e+02
    X0000094  C0000140  -6.750000000000e+02
    X0000094  C0000141  -6.750000000000e+02
    X0000094  C0000142   2.800000000000e+03
    X0000094  C0000143  -6.250000000000e+02
    X0000094  C0000144  -6.250000000000e+02
    X0000094  C0000145  -6.250000000000e+02
    X0000094  C0000146  -6.250000000000e+02
    X0000094  C0000147  -6.250000000000e+02
    X0000094  C0000148  -6.250000000000e+02
    X0000094  C0000149   2.800000000000e+03
    X0000094  C0000150  -6.250000000000e+02
    X0000094  C0000151  -4.750000000000e+02
    X0000094  C0000152  -6.250000000000e+02
    X0000094  C0000153  -4.750000000000e+02
    X0000094  C0000154  -6.750000000000e+02
    X0000094  C0000155  -6.750000000000e+02
    X0000094  C0000156  -6.750000000000e+02
    X0000094  C0000157  -6.750000000000e+02
    X0000094  C0000158  -6.750000000000e+02
    X0000094  C0000159  -6.750000000000e+02
    X0000094  C0000160  -6.750000000000e+02
    X0000094  C0000161  -6.750000000000e+02
    X0000094  C0000162  -6.750000000000e+02
    X0000094  C0000163  -6.750000000000e+02
    X0000094  C0000164  -6.750000000000e+02
    X0000094  C0000165   2.800000000000e+03
    X0000094  C0000166  -6.250000000000e+02
    X0000094  C0000167  -6.250000000000e+02
    X0000094  C0000168   2.800000000000e+03
    X0000094  C0000169   5.000000000000e+03
    X0000094  C0000170   1.050000000000e+04
    X0000094  C0000171   2.675000000000e+03
    X0000094  C0000172  -6.250000000000e+02
    X0000094  C0000173  -6.250000000000e+02
    X0000094  C0000175   3.150000000000e+03
    X0000094  C0000176   5.250000000000e+03
    X0000094  C0000187   3.150000000000e+03
    X0000094  OBJ        1.800000000000e+02
    MARK      'MARKER'                 'INTEND'
    MARK      'MARKER'                 'INTORG'
    X0000095  C0000104   1.000000000000e+00
    X0000095  C0000105  -1.000000000000e+00
    X0000095  C0000106   1.000000000000e+00
    X0000095  C0000107  -1.000000000000e+00
    X0000095  C0000108   1.000000000000e+00
    X0000095  C0000109  -1.000000000000e+00
    X0000095  C0000110   1.000000000000e+00
    X0000095  C0000111  -1.000000000000e+00
    X0000095  C0000112   1.000000000000e+00
    X0000095  C0000113  -1.000000000000e+00
    X0000095  C0000114  -5.000000000000e+00
    X0000095  C0000115   5.000000000000e+00
    X0000095  C0000116   6.000000000000e+00
    X0000095  C0000117  -6.000000000000e+00
    X0000095  C0000136   1.050000000000e+04
    X0000095  C0000137   3.150000000000e+03
    X0000095  C0000138  -3.500000000000e+02
    X0000095  C0000139  -3.500000000000e+02
    X0000095  C0000140  -3.500000000000e+02
    X0000095  C0000141   2.800000000000e+03
    X0000095  C0000142   2.800000000000e+03
    X0000095  C0000143   2.800000000000e+03
    X0000095  C0000144   2.800000000000e+03
    X0000095  C0000145  -3.500000000000e+02
    X0000095  C0000146  -3.500000000000e+02
    X0000095  C0000147   2.800000000000e+03
    X0000095  C0000148   2.800000000000e+03
    X0000095  C0000149  -3.500000000000e+02
    X0000095  C0000150  -5.000000000000e+02
    X0000095  C0000151  -6.250000000000e+02
    X0000095  C0000152  -6.250000000000e+02
    X0000095  C0000153  -6.250000000000e+02
    X0000095  C0000154  -6.250000000000e+02
    X0000095  C0000155  -6.250000000000e+02
    X0000095  C0000156  -3.500000000000e+02
    X0000095  C0000157  -3.500000000000e+02
    X0000095  C0000158  -5.000000000000e+02
    X0000095  C0000159  -5.000000000000e+02
    X0000095  C0000160  -6.250000000000e+02
    X0000095  C0000161  -6.250000000000e+02
    X0000095  C0000162  -6.250000000000e+02
    X0000095  C0000163  -6.250000000000e+02
    X0000095  C0000164  -6.250000000000e+02
    X0000095  C0000165  -6.250000000000e+02
    X0000095  C0000166  -6.250000000000e+02
    X0000095  C0000167  -3.500000000000e+02
    X0000095  C0000168  -3.500000000000e+02
    X0000095  C0000169   2.800000000000e+03
    X0000095  C0000170   2.800000000000e+03
    X0000095  C0000171   2.800000000000e+03
    X0000095  C0000172   2.800000000000e+03
    X0000095  C0000173   2.800000000000e+03
    X0000095  C0000174   2.800000000000e+03
    X0000095  C0000175  -3.500000000000e+02
    X0000095  C0000176  -5.000000000000e+02
    X0000095  C0000177  -3.500000000000e+02
    X0000095  C0000178  -3.500000000000e+02
    X0000095  C0000179   2.800000000000e+03
    X0000095  C0000180  -3.500000000000e+02
    X0000095  C0000181  -5.000000000000e+02
    X0000095  C0000182  -6.250000000000e+02
    X0000095  C0000183  -6.250000000000e+02
    X0000095  C0000184  -6.250000000000e+02
    X0000095  C0000185  -6.250000000000e+02
    X0000095  C0000186  -3.500000000000e+02
    X0000095  C0000187  -3.500000000000e+02
    X0000095  C0000188   2.800000000000e+03
    X0000095  C0000189   2.800000000000e+03
    X0000095  C0000190   2.800000000000e+03
    X0000095  C0000191  -3.500000000000e+02
    X0000095  OBJ        1.800000000000e+02
    MARK      'MARKER'                 'INTEND'
    MARK      'MARKER'                 'INTORG'
    X0000096  C0000106   1.000000000000e+00
    X0000096  C0000107  -1.000000000000e+00
    X0000096  C0000108   1.000000000000e+00
    X0000096  C0000109  -1.000000000000e+00
    X0000096  C0000110   1.000000000000e+00
    X0000096  C0000111  -1.000000000000e+00
    X0000096  C0000112   1.000000000000e+00
    X0000096  C0000113  -1.000000000000e+00
    X0000096  C0000114   1.000000000000e+00
    X0000096  C0000115  -1.000000000000e+00
    X0000096  C0000116  -5.000000000000e+00
    X0000096  C0000117   5.000000000000e+00
    X0000096  C0000118   6.000000000000e+00
    X0000096  C0000119  -6.000000000000e+00
    X0000096  C0000136   1.050000000000e+04
    X0000096  C0000137   5.250000000000e+03
    X0000096  C0000138  -2.500000000000e+02
    X0000096  C0000139  -5.000000000000e+02
    X0000096  C0000140  -5.000000000000e+02
    X0000096  C0000141  -5.000000000000e+02
    X0000096  C0000142  -5.000000000000e+02
    X0000096  C0000143  -5.000000000000e+02
    X0000096  C0000144  -3.500000000000e+02
    X0000096  C0000145  -5.000000000000e+02
    X0000096  C0000146  -5.000000000000e+02
    X0000096  C0000147  -5.000000000000e+02
    X0000096  C0000148  -5.000000000000e+02
    X0000096  C0000149  -5.000000000000e+02
    X0000096  C0000150  -5.000000000000e+02
    X0000096  C0000151  -5.000000000000e+02
    X0000096  C0000152  -5.000000000000e+02
    X0000096  C0000153  -5.000000000000e+02
    X0000096  C0000154  -5.000000000000e+02
    X0000096  C0000155  -5.000000000000e+02
    X0000096  C0000156  -5.000000000000e+02
    X0000096  C0000157  -5.000000000000e+02
    X0000096  C0000158  -5.000000000000e+02
    X0000096  C0000159  -5.000000000000e+02
    X0000096  C0000160  -5.000000000000e+02
    X0000096  C0000161  -2.500000000000e+02
    X0000096  C0000162  -5.000000000000e+02
    X0000096  C0000163  -5.000000000000e+02
    X0000096  C0000164  -5.000000000000e+02
    X0000096  C0000165  -5.000000000000e+02
    X0000096  C0000166  -5.000000000000e+02
    X0000096  C0000167  -5.000000000000e+02
    X0000096  C0000168  -5.000000000000e+02
    X0000096  C0000169  -5.000000000000e+02
    X0000096  C0000170  -5.000000000000e+02
    X0000096  C0000171  -5.000000000000e+02
    X0000096  C0000172  -5.000000000000e+02
    X0000096  C0000173  -3.500000000000e+02
    X0000096  C0000174  -3.500000000000e+02
    X0000096  C0000175   5.250000000000e+03
    X0000096  C0000176  -3.500000000000e+02
    X0000096  C0000177  -3.500000000000e+02
    X0000096  C0000178  -3.500000000000e+02
    X0000096  C0000179  -3.500000000000e+02
    X0000096  C0000180  -5.000000000000e+02
    X0000096  C0000181  -5.000000000000e+02
    X0000096  C0000182  -5.000000000000e+02
    X0000096  C0000183  -2.500000000000e+02
    X0000096  C0000184  -5.000000000000e+02
    X0000096  C0000186  -2.500000000000e+02
    X0000096  C0000187  -2.500000000000e+02
    X0000096  C0000188  -3.500000000000e+02
    X0000096  C0000189  -3.500000000000e+02
    X0000096  C0000190  -3.500000000000e+02
    X0000096  C0000191  -5.000000000000e+02
    X0000096  OBJ        1.800000000000e+02
    MARK      'MARKER'                 'INTEND'
RHS
    RHS       C0000000   0.000000000000e+00
    RHS       C0000001   0.000000000000e+00
    RHS       C0000002   0.000000000000e+00
    RHS       C0000003   0.000000000000e+00
    RHS       C0000004   0.000000000000e+00
    RHS       C0000005   0.000000000000e+00
    RHS       C0000006   0.000000000000e+00
    RHS       C0000007   0.000000000000e+00
    RHS       C0000008   0.000000000000e+00
    RHS       C0000009   0.000000000000e+00
    RHS       C0000010   0.000000000000e+00
    RHS       C0000011   0.000000000000e+00
    RHS       C0000012   0.000000000000e+00
    RHS       C0000013   0.000000000000e+00
    RHS       C0000014   0.000000000000e+00
    RHS       C0000015   0.000000000000e+00
    RHS       C0000016   0.000000000000e+00
    RHS       C0000017   0.000000000000e+00
    RHS       C0000018   0.000000000000e+00
    RHS       C0000019   0.000000000000e+00
    RHS       C0000020   0.000000000000e+00
    RHS       C0000021   0.000000000000e+00
    RHS       C0000022   0.000000000000e+00
    RHS       C0000023   0.000000000000e+00
    RHS       C0000024   0.000000000000e+00
    RHS       C0000025   0.000000000000e+00
    RHS       C0000026   0.000000000000e+00
    RHS       C0000027   0.000000000000e+00
    RHS       C0000028   0.000000000000e+00
    RHS       C0000029   0.000000000000e+00
    RHS       C0000030   0.000000000000e+00
    RHS       C0000031   0.000000000000e+00
    RHS       C0000032   0.000000000000e+00
    RHS       C0000033   0.000000000000e+00
    RHS       C0000034   0.000000000000e+00
    RHS       C0000035   0.000000000000e+00
    RHS       C0000036   0.000000000000e+00
    RHS       C0000037   0.000000000000e+00
    RHS       C0000038   0.000000000000e+00
    RHS       C0000039   0.000000000000e+00
    RHS       C0000040   0.000000000000e+00
    RHS       C0000041   0.000000000000e+00
    RHS       C0000042   0.000000000000e+00
    RHS       C0000043   0.000000000000e+00
    RHS       C0000044   0.000000000000e+00
    RHS       C0000045   0.000000000000e+00
    RHS       C0000046   0.000000000000e+00
    RHS       C0000047   0.000000000000e+00
    RHS       C0000048   0.000000000000e+00
    RHS       C0000049   0.000000000000e+00
    RHS       C0000050   0.000000000000e+00
    RHS       C0000051   0.000000000000e+00
    RHS       C0000052   0.000000000000e+00
    RHS       C0000053   0.000000000000e+00
    RHS       C0000054   0.000000000000e+00
    RHS       C0000055   0.000000000000e+00
    RHS       C0000056   0.000000000000e+00
    RHS       C0000057   0.000000000000e+00
    RHS       C0000058   0.000000000000e+00
    RHS       C0000059   0.000000000000e+00
    RHS       C0000060   0.000000000000e+00
    RHS       C0000061   0.000000000000e+00
    RHS       C0000062   0.000000000000e+00
    RHS       C0000063   0.000000000000e+00
    RHS       C0000064   0.000000000000e+00
    RHS       C0000065   0.000000000000e+00
    RHS       C0000066   0.000000000000e+00
    RHS       C0000067   0.000000000000e+00
    RHS       C0000068   0.000000000000e+00
    RHS       C0000069   0.000000000000e+00
    RHS       C0000070   0.000000000000e+00
    RHS       C0000071   0.000000000000e+00
    RHS       C0000072   0.000000000000e+00
    RHS       C0000073   0.000000000000e+00
    RHS       C0000074   0.000000000000e+00
    RHS       C0000075   0.000000000000e+00
    RHS       C0000076   0.000000000000e+00
    RHS       C0000077   0.000000000000e+00
    RHS       C0000078   0.000000000000e+00
    RHS       C0000079   0.000000000000e+00
    RHS       C0000080   0.000000000000e+00
    RHS       C0000081   0.000000000000e+00
    RHS       C0000082   0.000000000000e+00
    RHS       C0000083   0.000000000000e+00
    RHS       C0000084   0.000000000000e+00
    RHS       C0000085   0.000000000000e+00
    RHS       C0000086   0.000000000000e+00
    RHS       C0000087   0.000000000000e+00
    RHS       C0000088   0.000000000000e+00
    RHS       C0000089   0.000000000000e+00
    RHS       C0000090   0.000000000000e+00
    RHS       C0000091   0.000000000000e+00
    RHS       C0000092   0.000000000000e+00
    RHS       C0000093   0.000000000000e+00
    RHS       C0000094   0.000000000000e+00
    RHS       C0000095   0.000000000000e+00
    RHS       C0000096   0.000000000000e+00
    RHS       C0000097   0.000000000000e+00
    RHS       C0000098   0.000000000000e+00
    RHS       C0000099   0.000000000000e+00
    RHS       C0000100   0.000000000000e+00
    RHS       C0000101   0.000000000000e+00
    RHS       C0000102   0.000000000000e+00
    RHS       C0000103   0.000000000000e+00
    RHS       C0000104   0.000000000000e+00
    RHS       C0000105   0.000000000000e+00
    RHS       C0000106   0.000000000000e+00
    RHS       C0000107   0.000000000000e+00
    RHS       C0000108   0.000000000000e+00
    RHS       C0000109   0.000000000000e+00
    RHS       C0000110   0.000000000000e+00
    RHS       C0000111   0.000000000000e+00
    RHS       C0000112   0.000000000000e+00
    RHS       C0000113   0.000000000000e+00
    RHS       C0000114   0.000000000000e+00
    RHS       C0000115   0.000000000000e+00
    RHS       C0000116   0.000000000000e+00
    RHS       C0000117   0.000000000000e+00
    RHS       C0000118   0.000000000000e+00
    RHS       C0000119   0.000000000000e+00
    RHS       C0000120   0.000000000000e+00
    RHS       C0000121   0.000000000000e+00
    RHS       C0000122   0.000000000000e+00
    RHS       C0000123   0.000000000000e+00
    RHS       C0000124   0.000000000000e+00
    RHS       C0000125   0.000000000000e+00
    RHS       C0000126   0.000000000000e+00
    RHS       C0000127   0.000000000000e+00
    RHS       C0000128   0.000000000000e+00
    RHS       C0000129   0.000000000000e+00
    RHS       C0000130   0.000000000000e+00
    RHS       C0000131   0.000000000000e+00
    RHS       C0000132   0.000000000000e+00
    RHS       C0000133   0.000000000000e+00
    RHS       C0000134   0.000000000000e+00
    RHS       C0000135   0.000000000000e+00
    RHS       C0000136   7.552732302660e+05
    RHS       C0000137   7.142495071040e+05
    RHS       C0000138   3.603311020314e+05
    RHS       C0000139   2.430048697975e+05
    RHS       C0000140   2.130804819785e+05
    RHS       C0000141   2.914399272969e+05
    RHS       C0000142   2.417832791516e+05
    RHS       C0000143   3.001962792117e+05
    RHS       C0000144   2.400676267473e+05
    RHS       C0000145   2.720998930714e+05
    RHS       C0000146   2.102660337526e+05
    RHS       C0000147   1.957178536001e+05
    RHS       C0000148   1.872671003237e+05
    RHS       C0000149   2.099243735369e+05
    RHS       C0000150   2.602455836035e+05
    RHS       C0000151   2.233990559787e+05
    RHS       C0000152   1.981334362654e+05
    RHS       C0000153   1.925351758009e+05
    RHS       C0000154   2.321490407243e+05
    RHS       C0000155   1.696361834721e+05
    RHS       C0000156   1.658466184916e+05
    RHS       C0000157   1.485987801646e+05
    RHS       C0000158   1.435387359734e+05
    RHS       C0000159   1.715758709309e+05
    RHS       C0000160   1.664379257972e+05
    RHS       C0000161   1.675948649713e+05
    RHS       C0000162   1.504087106769e+05
    RHS       C0000163   1.500954341277e+05
    RHS       C0000164   1.537013806375e+05
    RHS       C0000165   1.594259055387e+05
    RHS       C0000166   1.414310091662e+05
    RHS       C0000167   1.425040686403e+05
    RHS       C0000168   1.544688993822e+05
    RHS       C0000169   1.810400857514e+05
    RHS       C0000170   1.715191445551e+05
    RHS       C0000171   1.722912400446e+05
    RHS       C0000172   1.682039591920e+05
    RHS       C0000173   1.953463396049e+05
    RHS       C0000174   1.888062077819e+05
    RHS       C0000175   1.802327884535e+05
    RHS       C0000176   1.697866755674e+05
    RHS       C0000177   1.580821951488e+05
    RHS       C0000178   1.470716508513e+05
    RHS       C0000179   1.685609177054e+05
    RHS       C0000180   1.587097052584e+05
    RHS       C0000181   1.630157673802e+05
    RHS       C0000182   1.811311292712e+05
    RHS       C0000183   2.080035278929e+05
    RHS       C0000184   1.796585276938e+05
    RHS       C0000185   1.714095643071e+05
    RHS       C0000186   1.651493165261e+05
    RHS       C0000187   1.538007832431e+05
    RHS       C0000188   1.503260287834e+05
    RHS       C0000189   1.528904402896e+05
    RHS       C0000190   1.603197053922e+05
    RHS       C0000191   1.918640968961e+05
BOUNDS
 BV BND       X0000001
 BV BND       X0000002
 BV BND       X0000003
 BV BND       X0000004
 BV BND       X0000005
 BV BND       X0000006
 BV BND       X0000007
 BV BND       X0000008
 BV BND       X0000009
 BV BND       X0000010
 BV BND       X0000011
 BV BND       X0000012
 BV BND       X0000013
 BV BND       X0000014
 BV BND       X0000015
 BV BND       X0000016
 BV BND       X0000017
 BV BND       X0000018
 BV BND       X0000019
 BV BND       X0000020
 BV BND       X0000021
 BV BND       X0000022
 BV BND       X0000023
 BV BND       X0000024
 BV BND       X0000025
 BV BND       X0000026
 BV BND       X0000027
 BV BND       X0000028
 BV BND       X0000029
 BV BND       X0000030
 BV BND       X0000031
 BV BND       X0000032
 BV BND       X0000033
 BV BND       X0000034
 BV BND       X0000035
 BV BND       X0000036
 BV BND       X0000037
 BV BND       X0000038
 BV BND       X0000039
 BV BND       X0000040
 BV BND       X0000041
 BV BND       X0000042
 BV BND       X0000043
 BV BND       X0000044
 BV BND       X0000045
 BV BND       X0000046
 BV BND       X0000047
 BV BND       X0000048
 BV BND       X0000049
 BV BND       X0000050
 BV BND       X0000051
 BV BND       X0000052
 BV BND       X0000053
 BV BND       X0000054
 BV BND       X0000055
 BV BND       X0000056
 BV BND       X0000057
 BV BND       X0000058
 BV BND       X0000059
 BV BND       X0000060
 BV BND       X0000061
 BV BND       X0000062
 BV BND       X0000063
 BV BND       X0000064
 BV BND       X0000065
 BV BND       X0000066
 BV BND       X0000067
 BV BND       X0000068
 BV BND       X0000069
 BV BND       X0000070
 BV BND       X0000071
 BV BND       X0000072
 BV BND       X0000073
 BV BND       X0000074
 BV BND       X0000075
 BV BND       X0000076
 BV BND       X0000077
 BV BND       X0000078
 BV BND       X0000079
 BV BND       X0000080
 BV BND       X0000081
 BV BND       X0000082
 BV BND       X0000083
 BV BND       X0000084
 BV BND       X0000085
 BV BND       X0000086
 BV BND       X0000087
 BV BND       X0000088
 BV BND       X0000089
 BV BND       X0000090
 BV BND       X0000091
 BV BND       X0000092
 BV BND       X0000093
 BV BND       X0000094
 BV BND       X0000095
 BV BND       X0000096
ENDATA
